p cnf 4096 31845
1 2 3 4 5 6 7 8 9 10 11 12 13 14 15 16 0
-1 -2 0
-1 -3 0
-1 -4 0
-1 -5 0
-1 -6 0
-1 -7 0
-1 -8 0
-1 -9 0
-1 -10 0
-1 -11 0
-1 -12 0
-1 -13 0
-1 -14 0
-1 -15 0
-1 -16 0
-2 -3 0
-2 -4 0
-2 -5 0
-2 -6 0
-2 -7 0
-2 -8 0
-2 -9 0
-2 -10 0
-2 -11 0
-2 -12 0
-2 -13 0
-2 -14 0
-2 -15 0
-2 -16 0
-3 -4 0
-3 -5 0
-3 -6 0
-3 -7 0
-3 -8 0
-3 -9 0
-3 -10 0
-3 -11 0
-3 -12 0
-3 -13 0
-3 -14 0
-3 -15 0
-3 -16 0
-4 -5 0
-4 -6 0
-4 -7 0
-4 -8 0
-4 -9 0
-4 -10 0
-4 -11 0
-4 -12 0
-4 -13 0
-4 -14 0
-4 -15 0
-4 -16 0
-5 -6 0
-5 -7 0
-5 -8 0
-5 -9 0
-5 -10 0
-5 -11 0
-5 -12 0
-5 -13 0
-5 -14 0
-5 -15 0
-5 -16 0
-6 -7 0
-6 -8 0
-6 -9 0
-6 -10 0
-6 -11 0
-6 -12 0
-6 -13 0
-6 -14 0
-6 -15 0
-6 -16 0
-7 -8 0
-7 -9 0
-7 -10 0
-7 -11 0
-7 -12 0
-7 -13 0
-7 -14 0
-7 -15 0
-7 -16 0
-8 -9 0
-8 -10 0
-8 -11 0
-8 -12 0
-8 -13 0
-8 -14 0
-8 -15 0
-8 -16 0
-9 -10 0
-9 -11 0
-9 -12 0
-9 -13 0
-9 -14 0
-9 -15 0
-9 -16 0
-10 -11 0
-10 -12 0
-10 -13 0
-10 -14 0
-10 -15 0
-10 -16 0
-11 -12 0
-11 -13 0
-11 -14 0
-11 -15 0
-11 -16 0
-12 -13 0
-12 -14 0
-12 -15 0
-12 -16 0
-13 -14 0
-13 -15 0
-13 -16 0
-14 -15 0
-14 -16 0
-15 -16 0
17 18 19 20 21 22 23 24 25 26 27 28 29 30 31 32 0
-17 -18 0
-17 -19 0
-17 -20 0
-17 -21 0
-17 -22 0
-17 -23 0
-17 -24 0
-17 -25 0
-17 -26 0
-17 -27 0
-17 -28 0
-17 -29 0
-17 -30 0
-17 -31 0
-17 -32 0
-18 -19 0
-18 -20 0
-18 -21 0
-18 -22 0
-18 -23 0
-18 -24 0
-18 -25 0
-18 -26 0
-18 -27 0
-18 -28 0
-18 -29 0
-18 -30 0
-18 -31 0
-18 -32 0
-19 -20 0
-19 -21 0
-19 -22 0
-19 -23 0
-19 -24 0
-19 -25 0
-19 -26 0
-19 -27 0
-19 -28 0
-19 -29 0
-19 -30 0
-19 -31 0
-19 -32 0
-20 -21 0
-20 -22 0
-20 -23 0
-20 -24 0
-20 -25 0
-20 -26 0
-20 -27 0
-20 -28 0
-20 -29 0
-20 -30 0
-20 -31 0
-20 -32 0
-21 -22 0
-21 -23 0
-21 -24 0
-21 -25 0
-21 -26 0
-21 -27 0
-21 -28 0
-21 -29 0
-21 -30 0
-21 -31 0
-21 -32 0
-22 -23 0
-22 -24 0
-22 -25 0
-22 -26 0
-22 -27 0
-22 -28 0
-22 -29 0
-22 -30 0
-22 -31 0
-22 -32 0
-23 -24 0
-23 -25 0
-23 -26 0
-23 -27 0
-23 -28 0
-23 -29 0
-23 -30 0
-23 -31 0
-23 -32 0
-24 -25 0
-24 -26 0
-24 -27 0
-24 -28 0
-24 -29 0
-24 -30 0
-24 -31 0
-24 -32 0
-25 -26 0
-25 -27 0
-25 -28 0
-25 -29 0
-25 -30 0
-25 -31 0
-25 -32 0
-26 -27 0
-26 -28 0
-26 -29 0
-26 -30 0
-26 -31 0
-26 -32 0
-27 -28 0
-27 -29 0
-27 -30 0
-27 -31 0
-27 -32 0
-28 -29 0
-28 -30 0
-28 -31 0
-28 -32 0
-29 -30 0
-29 -31 0
-29 -32 0
-30 -31 0
-30 -32 0
-31 -32 0
33 34 35 36 37 38 39 40 41 42 43 44 45 46 47 48 0
-33 -34 0
-33 -35 0
-33 -36 0
-33 -37 0
-33 -38 0
-33 -39 0
-33 -40 0
-33 -41 0
-33 -42 0
-33 -43 0
-33 -44 0
-33 -45 0
-33 -46 0
-33 -47 0
-33 -48 0
-34 -35 0
-34 -36 0
-34 -37 0
-34 -38 0
-34 -39 0
-34 -40 0
-34 -41 0
-34 -42 0
-34 -43 0
-34 -44 0
-34 -45 0
-34 -46 0
-34 -47 0
-34 -48 0
-35 -36 0
-35 -37 0
-35 -38 0
-35 -39 0
-35 -40 0
-35 -41 0
-35 -42 0
-35 -43 0
-35 -44 0
-35 -45 0
-35 -46 0
-35 -47 0
-35 -48 0
-36 -37 0
-36 -38 0
-36 -39 0
-36 -40 0
-36 -41 0
-36 -42 0
-36 -43 0
-36 -44 0
-36 -45 0
-36 -46 0
-36 -47 0
-36 -48 0
-37 -38 0
-37 -39 0
-37 -40 0
-37 -41 0
-37 -42 0
-37 -43 0
-37 -44 0
-37 -45 0
-37 -46 0
-37 -47 0
-37 -48 0
-38 -39 0
-38 -40 0
-38 -41 0
-38 -42 0
-38 -43 0
-38 -44 0
-38 -45 0
-38 -46 0
-38 -47 0
-38 -48 0
-39 -40 0
-39 -41 0
-39 -42 0
-39 -43 0
-39 -44 0
-39 -45 0
-39 -46 0
-39 -47 0
-39 -48 0
-40 -41 0
-40 -42 0
-40 -43 0
-40 -44 0
-40 -45 0
-40 -46 0
-40 -47 0
-40 -48 0
-41 -42 0
-41 -43 0
-41 -44 0
-41 -45 0
-41 -46 0
-41 -47 0
-41 -48 0
-42 -43 0
-42 -44 0
-42 -45 0
-42 -46 0
-42 -47 0
-42 -48 0
-43 -44 0
-43 -45 0
-43 -46 0
-43 -47 0
-43 -48 0
-44 -45 0
-44 -46 0
-44 -47 0
-44 -48 0
-45 -46 0
-45 -47 0
-45 -48 0
-46 -47 0
-46 -48 0
-47 -48 0
49 50 51 52 53 54 55 56 57 58 59 60 61 62 63 64 0
-49 -50 0
-49 -51 0
-49 -52 0
-49 -53 0
-49 -54 0
-49 -55 0
-49 -56 0
-49 -57 0
-49 -58 0
-49 -59 0
-49 -60 0
-49 -61 0
-49 -62 0
-49 -63 0
-49 -64 0
-50 -51 0
-50 -52 0
-50 -53 0
-50 -54 0
-50 -55 0
-50 -56 0
-50 -57 0
-50 -58 0
-50 -59 0
-50 -60 0
-50 -61 0
-50 -62 0
-50 -63 0
-50 -64 0
-51 -52 0
-51 -53 0
-51 -54 0
-51 -55 0
-51 -56 0
-51 -57 0
-51 -58 0
-51 -59 0
-51 -60 0
-51 -61 0
-51 -62 0
-51 -63 0
-51 -64 0
-52 -53 0
-52 -54 0
-52 -55 0
-52 -56 0
-52 -57 0
-52 -58 0
-52 -59 0
-52 -60 0
-52 -61 0
-52 -62 0
-52 -63 0
-52 -64 0
-53 -54 0
-53 -55 0
-53 -56 0
-53 -57 0
-53 -58 0
-53 -59 0
-53 -60 0
-53 -61 0
-53 -62 0
-53 -63 0
-53 -64 0
-54 -55 0
-54 -56 0
-54 -57 0
-54 -58 0
-54 -59 0
-54 -60 0
-54 -61 0
-54 -62 0
-54 -63 0
-54 -64 0
-55 -56 0
-55 -57 0
-55 -58 0
-55 -59 0
-55 -60 0
-55 -61 0
-55 -62 0
-55 -63 0
-55 -64 0
-56 -57 0
-56 -58 0
-56 -59 0
-56 -60 0
-56 -61 0
-56 -62 0
-56 -63 0
-56 -64 0
-57 -58 0
-57 -59 0
-57 -60 0
-57 -61 0
-57 -62 0
-57 -63 0
-57 -64 0
-58 -59 0
-58 -60 0
-58 -61 0
-58 -62 0
-58 -63 0
-58 -64 0
-59 -60 0
-59 -61 0
-59 -62 0
-59 -63 0
-59 -64 0
-60 -61 0
-60 -62 0
-60 -63 0
-60 -64 0
-61 -62 0
-61 -63 0
-61 -64 0
-62 -63 0
-62 -64 0
-63 -64 0
65 66 67 68 69 70 71 72 73 74 75 76 77 78 79 80 0
-65 -66 0
-65 -67 0
-65 -68 0
-65 -69 0
-65 -70 0
-65 -71 0
-65 -72 0
-65 -73 0
-65 -74 0
-65 -75 0
-65 -76 0
-65 -77 0
-65 -78 0
-65 -79 0
-65 -80 0
-66 -67 0
-66 -68 0
-66 -69 0
-66 -70 0
-66 -71 0
-66 -72 0
-66 -73 0
-66 -74 0
-66 -75 0
-66 -76 0
-66 -77 0
-66 -78 0
-66 -79 0
-66 -80 0
-67 -68 0
-67 -69 0
-67 -70 0
-67 -71 0
-67 -72 0
-67 -73 0
-67 -74 0
-67 -75 0
-67 -76 0
-67 -77 0
-67 -78 0
-67 -79 0
-67 -80 0
-68 -69 0
-68 -70 0
-68 -71 0
-68 -72 0
-68 -73 0
-68 -74 0
-68 -75 0
-68 -76 0
-68 -77 0
-68 -78 0
-68 -79 0
-68 -80 0
-69 -70 0
-69 -71 0
-69 -72 0
-69 -73 0
-69 -74 0
-69 -75 0
-69 -76 0
-69 -77 0
-69 -78 0
-69 -79 0
-69 -80 0
-70 -71 0
-70 -72 0
-70 -73 0
-70 -74 0
-70 -75 0
-70 -76 0
-70 -77 0
-70 -78 0
-70 -79 0
-70 -80 0
-71 -72 0
-71 -73 0
-71 -74 0
-71 -75 0
-71 -76 0
-71 -77 0
-71 -78 0
-71 -79 0
-71 -80 0
-72 -73 0
-72 -74 0
-72 -75 0
-72 -76 0
-72 -77 0
-72 -78 0
-72 -79 0
-72 -80 0
-73 -74 0
-73 -75 0
-73 -76 0
-73 -77 0
-73 -78 0
-73 -79 0
-73 -80 0
-74 -75 0
-74 -76 0
-74 -77 0
-74 -78 0
-74 -79 0
-74 -80 0
-75 -76 0
-75 -77 0
-75 -78 0
-75 -79 0
-75 -80 0
-76 -77 0
-76 -78 0
-76 -79 0
-76 -80 0
-77 -78 0
-77 -79 0
-77 -80 0
-78 -79 0
-78 -80 0
-79 -80 0
81 82 83 84 85 86 87 88 89 90 91 92 93 94 95 96 0
-81 -82 0
-81 -83 0
-81 -84 0
-81 -85 0
-81 -86 0
-81 -87 0
-81 -88 0
-81 -89 0
-81 -90 0
-81 -91 0
-81 -92 0
-81 -93 0
-81 -94 0
-81 -95 0
-81 -96 0
-82 -83 0
-82 -84 0
-82 -85 0
-82 -86 0
-82 -87 0
-82 -88 0
-82 -89 0
-82 -90 0
-82 -91 0
-82 -92 0
-82 -93 0
-82 -94 0
-82 -95 0
-82 -96 0
-83 -84 0
-83 -85 0
-83 -86 0
-83 -87 0
-83 -88 0
-83 -89 0
-83 -90 0
-83 -91 0
-83 -92 0
-83 -93 0
-83 -94 0
-83 -95 0
-83 -96 0
-84 -85 0
-84 -86 0
-84 -87 0
-84 -88 0
-84 -89 0
-84 -90 0
-84 -91 0
-84 -92 0
-84 -93 0
-84 -94 0
-84 -95 0
-84 -96 0
-85 -86 0
-85 -87 0
-85 -88 0
-85 -89 0
-85 -90 0
-85 -91 0
-85 -92 0
-85 -93 0
-85 -94 0
-85 -95 0
-85 -96 0
-86 -87 0
-86 -88 0
-86 -89 0
-86 -90 0
-86 -91 0
-86 -92 0
-86 -93 0
-86 -94 0
-86 -95 0
-86 -96 0
-87 -88 0
-87 -89 0
-87 -90 0
-87 -91 0
-87 -92 0
-87 -93 0
-87 -94 0
-87 -95 0
-87 -96 0
-88 -89 0
-88 -90 0
-88 -91 0
-88 -92 0
-88 -93 0
-88 -94 0
-88 -95 0
-88 -96 0
-89 -90 0
-89 -91 0
-89 -92 0
-89 -93 0
-89 -94 0
-89 -95 0
-89 -96 0
-90 -91 0
-90 -92 0
-90 -93 0
-90 -94 0
-90 -95 0
-90 -96 0
-91 -92 0
-91 -93 0
-91 -94 0
-91 -95 0
-91 -96 0
-92 -93 0
-92 -94 0
-92 -95 0
-92 -96 0
-93 -94 0
-93 -95 0
-93 -96 0
-94 -95 0
-94 -96 0
-95 -96 0
97 98 99 100 101 102 103 104 105 106 107 108 109 110 111 112 0
-97 -98 0
-97 -99 0
-97 -100 0
-97 -101 0
-97 -102 0
-97 -103 0
-97 -104 0
-97 -105 0
-97 -106 0
-97 -107 0
-97 -108 0
-97 -109 0
-97 -110 0
-97 -111 0
-97 -112 0
-98 -99 0
-98 -100 0
-98 -101 0
-98 -102 0
-98 -103 0
-98 -104 0
-98 -105 0
-98 -106 0
-98 -107 0
-98 -108 0
-98 -109 0
-98 -110 0
-98 -111 0
-98 -112 0
-99 -100 0
-99 -101 0
-99 -102 0
-99 -103 0
-99 -104 0
-99 -105 0
-99 -106 0
-99 -107 0
-99 -108 0
-99 -109 0
-99 -110 0
-99 -111 0
-99 -112 0
-100 -101 0
-100 -102 0
-100 -103 0
-100 -104 0
-100 -105 0
-100 -106 0
-100 -107 0
-100 -108 0
-100 -109 0
-100 -110 0
-100 -111 0
-100 -112 0
-101 -102 0
-101 -103 0
-101 -104 0
-101 -105 0
-101 -106 0
-101 -107 0
-101 -108 0
-101 -109 0
-101 -110 0
-101 -111 0
-101 -112 0
-102 -103 0
-102 -104 0
-102 -105 0
-102 -106 0
-102 -107 0
-102 -108 0
-102 -109 0
-102 -110 0
-102 -111 0
-102 -112 0
-103 -104 0
-103 -105 0
-103 -106 0
-103 -107 0
-103 -108 0
-103 -109 0
-103 -110 0
-103 -111 0
-103 -112 0
-104 -105 0
-104 -106 0
-104 -107 0
-104 -108 0
-104 -109 0
-104 -110 0
-104 -111 0
-104 -112 0
-105 -106 0
-105 -107 0
-105 -108 0
-105 -109 0
-105 -110 0
-105 -111 0
-105 -112 0
-106 -107 0
-106 -108 0
-106 -109 0
-106 -110 0
-106 -111 0
-106 -112 0
-107 -108 0
-107 -109 0
-107 -110 0
-107 -111 0
-107 -112 0
-108 -109 0
-108 -110 0
-108 -111 0
-108 -112 0
-109 -110 0
-109 -111 0
-109 -112 0
-110 -111 0
-110 -112 0
-111 -112 0
113 114 115 116 117 118 119 120 121 122 123 124 125 126 127 128 0
-113 -114 0
-113 -115 0
-113 -116 0
-113 -117 0
-113 -118 0
-113 -119 0
-113 -120 0
-113 -121 0
-113 -122 0
-113 -123 0
-113 -124 0
-113 -125 0
-113 -126 0
-113 -127 0
-113 -128 0
-114 -115 0
-114 -116 0
-114 -117 0
-114 -118 0
-114 -119 0
-114 -120 0
-114 -121 0
-114 -122 0
-114 -123 0
-114 -124 0
-114 -125 0
-114 -126 0
-114 -127 0
-114 -128 0
-115 -116 0
-115 -117 0
-115 -118 0
-115 -119 0
-115 -120 0
-115 -121 0
-115 -122 0
-115 -123 0
-115 -124 0
-115 -125 0
-115 -126 0
-115 -127 0
-115 -128 0
-116 -117 0
-116 -118 0
-116 -119 0
-116 -120 0
-116 -121 0
-116 -122 0
-116 -123 0
-116 -124 0
-116 -125 0
-116 -126 0
-116 -127 0
-116 -128 0
-117 -118 0
-117 -119 0
-117 -120 0
-117 -121 0
-117 -122 0
-117 -123 0
-117 -124 0
-117 -125 0
-117 -126 0
-117 -127 0
-117 -128 0
-118 -119 0
-118 -120 0
-118 -121 0
-118 -122 0
-118 -123 0
-118 -124 0
-118 -125 0
-118 -126 0
-118 -127 0
-118 -128 0
-119 -120 0
-119 -121 0
-119 -122 0
-119 -123 0
-119 -124 0
-119 -125 0
-119 -126 0
-119 -127 0
-119 -128 0
-120 -121 0
-120 -122 0
-120 -123 0
-120 -124 0
-120 -125 0
-120 -126 0
-120 -127 0
-120 -128 0
-121 -122 0
-121 -123 0
-121 -124 0
-121 -125 0
-121 -126 0
-121 -127 0
-121 -128 0
-122 -123 0
-122 -124 0
-122 -125 0
-122 -126 0
-122 -127 0
-122 -128 0
-123 -124 0
-123 -125 0
-123 -126 0
-123 -127 0
-123 -128 0
-124 -125 0
-124 -126 0
-124 -127 0
-124 -128 0
-125 -126 0
-125 -127 0
-125 -128 0
-126 -127 0
-126 -128 0
-127 -128 0
129 130 131 132 133 134 135 136 137 138 139 140 141 142 143 144 0
-129 -130 0
-129 -131 0
-129 -132 0
-129 -133 0
-129 -134 0
-129 -135 0
-129 -136 0
-129 -137 0
-129 -138 0
-129 -139 0
-129 -140 0
-129 -141 0
-129 -142 0
-129 -143 0
-129 -144 0
-130 -131 0
-130 -132 0
-130 -133 0
-130 -134 0
-130 -135 0
-130 -136 0
-130 -137 0
-130 -138 0
-130 -139 0
-130 -140 0
-130 -141 0
-130 -142 0
-130 -143 0
-130 -144 0
-131 -132 0
-131 -133 0
-131 -134 0
-131 -135 0
-131 -136 0
-131 -137 0
-131 -138 0
-131 -139 0
-131 -140 0
-131 -141 0
-131 -142 0
-131 -143 0
-131 -144 0
-132 -133 0
-132 -134 0
-132 -135 0
-132 -136 0
-132 -137 0
-132 -138 0
-132 -139 0
-132 -140 0
-132 -141 0
-132 -142 0
-132 -143 0
-132 -144 0
-133 -134 0
-133 -135 0
-133 -136 0
-133 -137 0
-133 -138 0
-133 -139 0
-133 -140 0
-133 -141 0
-133 -142 0
-133 -143 0
-133 -144 0
-134 -135 0
-134 -136 0
-134 -137 0
-134 -138 0
-134 -139 0
-134 -140 0
-134 -141 0
-134 -142 0
-134 -143 0
-134 -144 0
-135 -136 0
-135 -137 0
-135 -138 0
-135 -139 0
-135 -140 0
-135 -141 0
-135 -142 0
-135 -143 0
-135 -144 0
-136 -137 0
-136 -138 0
-136 -139 0
-136 -140 0
-136 -141 0
-136 -142 0
-136 -143 0
-136 -144 0
-137 -138 0
-137 -139 0
-137 -140 0
-137 -141 0
-137 -142 0
-137 -143 0
-137 -144 0
-138 -139 0
-138 -140 0
-138 -141 0
-138 -142 0
-138 -143 0
-138 -144 0
-139 -140 0
-139 -141 0
-139 -142 0
-139 -143 0
-139 -144 0
-140 -141 0
-140 -142 0
-140 -143 0
-140 -144 0
-141 -142 0
-141 -143 0
-141 -144 0
-142 -143 0
-142 -144 0
-143 -144 0
145 146 147 148 149 150 151 152 153 154 155 156 157 158 159 160 0
-145 -146 0
-145 -147 0
-145 -148 0
-145 -149 0
-145 -150 0
-145 -151 0
-145 -152 0
-145 -153 0
-145 -154 0
-145 -155 0
-145 -156 0
-145 -157 0
-145 -158 0
-145 -159 0
-145 -160 0
-146 -147 0
-146 -148 0
-146 -149 0
-146 -150 0
-146 -151 0
-146 -152 0
-146 -153 0
-146 -154 0
-146 -155 0
-146 -156 0
-146 -157 0
-146 -158 0
-146 -159 0
-146 -160 0
-147 -148 0
-147 -149 0
-147 -150 0
-147 -151 0
-147 -152 0
-147 -153 0
-147 -154 0
-147 -155 0
-147 -156 0
-147 -157 0
-147 -158 0
-147 -159 0
-147 -160 0
-148 -149 0
-148 -150 0
-148 -151 0
-148 -152 0
-148 -153 0
-148 -154 0
-148 -155 0
-148 -156 0
-148 -157 0
-148 -158 0
-148 -159 0
-148 -160 0
-149 -150 0
-149 -151 0
-149 -152 0
-149 -153 0
-149 -154 0
-149 -155 0
-149 -156 0
-149 -157 0
-149 -158 0
-149 -159 0
-149 -160 0
-150 -151 0
-150 -152 0
-150 -153 0
-150 -154 0
-150 -155 0
-150 -156 0
-150 -157 0
-150 -158 0
-150 -159 0
-150 -160 0
-151 -152 0
-151 -153 0
-151 -154 0
-151 -155 0
-151 -156 0
-151 -157 0
-151 -158 0
-151 -159 0
-151 -160 0
-152 -153 0
-152 -154 0
-152 -155 0
-152 -156 0
-152 -157 0
-152 -158 0
-152 -159 0
-152 -160 0
-153 -154 0
-153 -155 0
-153 -156 0
-153 -157 0
-153 -158 0
-153 -159 0
-153 -160 0
-154 -155 0
-154 -156 0
-154 -157 0
-154 -158 0
-154 -159 0
-154 -160 0
-155 -156 0
-155 -157 0
-155 -158 0
-155 -159 0
-155 -160 0
-156 -157 0
-156 -158 0
-156 -159 0
-156 -160 0
-157 -158 0
-157 -159 0
-157 -160 0
-158 -159 0
-158 -160 0
-159 -160 0
161 162 163 164 165 166 167 168 169 170 171 172 173 174 175 176 0
-161 -162 0
-161 -163 0
-161 -164 0
-161 -165 0
-161 -166 0
-161 -167 0
-161 -168 0
-161 -169 0
-161 -170 0
-161 -171 0
-161 -172 0
-161 -173 0
-161 -174 0
-161 -175 0
-161 -176 0
-162 -163 0
-162 -164 0
-162 -165 0
-162 -166 0
-162 -167 0
-162 -168 0
-162 -169 0
-162 -170 0
-162 -171 0
-162 -172 0
-162 -173 0
-162 -174 0
-162 -175 0
-162 -176 0
-163 -164 0
-163 -165 0
-163 -166 0
-163 -167 0
-163 -168 0
-163 -169 0
-163 -170 0
-163 -171 0
-163 -172 0
-163 -173 0
-163 -174 0
-163 -175 0
-163 -176 0
-164 -165 0
-164 -166 0
-164 -167 0
-164 -168 0
-164 -169 0
-164 -170 0
-164 -171 0
-164 -172 0
-164 -173 0
-164 -174 0
-164 -175 0
-164 -176 0
-165 -166 0
-165 -167 0
-165 -168 0
-165 -169 0
-165 -170 0
-165 -171 0
-165 -172 0
-165 -173 0
-165 -174 0
-165 -175 0
-165 -176 0
-166 -167 0
-166 -168 0
-166 -169 0
-166 -170 0
-166 -171 0
-166 -172 0
-166 -173 0
-166 -174 0
-166 -175 0
-166 -176 0
-167 -168 0
-167 -169 0
-167 -170 0
-167 -171 0
-167 -172 0
-167 -173 0
-167 -174 0
-167 -175 0
-167 -176 0
-168 -169 0
-168 -170 0
-168 -171 0
-168 -172 0
-168 -173 0
-168 -174 0
-168 -175 0
-168 -176 0
-169 -170 0
-169 -171 0
-169 -172 0
-169 -173 0
-169 -174 0
-169 -175 0
-169 -176 0
-170 -171 0
-170 -172 0
-170 -173 0
-170 -174 0
-170 -175 0
-170 -176 0
-171 -172 0
-171 -173 0
-171 -174 0
-171 -175 0
-171 -176 0
-172 -173 0
-172 -174 0
-172 -175 0
-172 -176 0
-173 -174 0
-173 -175 0
-173 -176 0
-174 -175 0
-174 -176 0
-175 -176 0
177 178 179 180 181 182 183 184 185 186 187 188 189 190 191 192 0
-177 -178 0
-177 -179 0
-177 -180 0
-177 -181 0
-177 -182 0
-177 -183 0
-177 -184 0
-177 -185 0
-177 -186 0
-177 -187 0
-177 -188 0
-177 -189 0
-177 -190 0
-177 -191 0
-177 -192 0
-178 -179 0
-178 -180 0
-178 -181 0
-178 -182 0
-178 -183 0
-178 -184 0
-178 -185 0
-178 -186 0
-178 -187 0
-178 -188 0
-178 -189 0
-178 -190 0
-178 -191 0
-178 -192 0
-179 -180 0
-179 -181 0
-179 -182 0
-179 -183 0
-179 -184 0
-179 -185 0
-179 -186 0
-179 -187 0
-179 -188 0
-179 -189 0
-179 -190 0
-179 -191 0
-179 -192 0
-180 -181 0
-180 -182 0
-180 -183 0
-180 -184 0
-180 -185 0
-180 -186 0
-180 -187 0
-180 -188 0
-180 -189 0
-180 -190 0
-180 -191 0
-180 -192 0
-181 -182 0
-181 -183 0
-181 -184 0
-181 -185 0
-181 -186 0
-181 -187 0
-181 -188 0
-181 -189 0
-181 -190 0
-181 -191 0
-181 -192 0
-182 -183 0
-182 -184 0
-182 -185 0
-182 -186 0
-182 -187 0
-182 -188 0
-182 -189 0
-182 -190 0
-182 -191 0
-182 -192 0
-183 -184 0
-183 -185 0
-183 -186 0
-183 -187 0
-183 -188 0
-183 -189 0
-183 -190 0
-183 -191 0
-183 -192 0
-184 -185 0
-184 -186 0
-184 -187 0
-184 -188 0
-184 -189 0
-184 -190 0
-184 -191 0
-184 -192 0
-185 -186 0
-185 -187 0
-185 -188 0
-185 -189 0
-185 -190 0
-185 -191 0
-185 -192 0
-186 -187 0
-186 -188 0
-186 -189 0
-186 -190 0
-186 -191 0
-186 -192 0
-187 -188 0
-187 -189 0
-187 -190 0
-187 -191 0
-187 -192 0
-188 -189 0
-188 -190 0
-188 -191 0
-188 -192 0
-189 -190 0
-189 -191 0
-189 -192 0
-190 -191 0
-190 -192 0
-191 -192 0
193 194 195 196 197 198 199 200 201 202 203 204 205 206 207 208 0
-193 -194 0
-193 -195 0
-193 -196 0
-193 -197 0
-193 -198 0
-193 -199 0
-193 -200 0
-193 -201 0
-193 -202 0
-193 -203 0
-193 -204 0
-193 -205 0
-193 -206 0
-193 -207 0
-193 -208 0
-194 -195 0
-194 -196 0
-194 -197 0
-194 -198 0
-194 -199 0
-194 -200 0
-194 -201 0
-194 -202 0
-194 -203 0
-194 -204 0
-194 -205 0
-194 -206 0
-194 -207 0
-194 -208 0
-195 -196 0
-195 -197 0
-195 -198 0
-195 -199 0
-195 -200 0
-195 -201 0
-195 -202 0
-195 -203 0
-195 -204 0
-195 -205 0
-195 -206 0
-195 -207 0
-195 -208 0
-196 -197 0
-196 -198 0
-196 -199 0
-196 -200 0
-196 -201 0
-196 -202 0
-196 -203 0
-196 -204 0
-196 -205 0
-196 -206 0
-196 -207 0
-196 -208 0
-197 -198 0
-197 -199 0
-197 -200 0
-197 -201 0
-197 -202 0
-197 -203 0
-197 -204 0
-197 -205 0
-197 -206 0
-197 -207 0
-197 -208 0
-198 -199 0
-198 -200 0
-198 -201 0
-198 -202 0
-198 -203 0
-198 -204 0
-198 -205 0
-198 -206 0
-198 -207 0
-198 -208 0
-199 -200 0
-199 -201 0
-199 -202 0
-199 -203 0
-199 -204 0
-199 -205 0
-199 -206 0
-199 -207 0
-199 -208 0
-200 -201 0
-200 -202 0
-200 -203 0
-200 -204 0
-200 -205 0
-200 -206 0
-200 -207 0
-200 -208 0
-201 -202 0
-201 -203 0
-201 -204 0
-201 -205 0
-201 -206 0
-201 -207 0
-201 -208 0
-202 -203 0
-202 -204 0
-202 -205 0
-202 -206 0
-202 -207 0
-202 -208 0
-203 -204 0
-203 -205 0
-203 -206 0
-203 -207 0
-203 -208 0
-204 -205 0
-204 -206 0
-204 -207 0
-204 -208 0
-205 -206 0
-205 -207 0
-205 -208 0
-206 -207 0
-206 -208 0
-207 -208 0
209 210 211 212 213 214 215 216 217 218 219 220 221 222 223 224 0
-209 -210 0
-209 -211 0
-209 -212 0
-209 -213 0
-209 -214 0
-209 -215 0
-209 -216 0
-209 -217 0
-209 -218 0
-209 -219 0
-209 -220 0
-209 -221 0
-209 -222 0
-209 -223 0
-209 -224 0
-210 -211 0
-210 -212 0
-210 -213 0
-210 -214 0
-210 -215 0
-210 -216 0
-210 -217 0
-210 -218 0
-210 -219 0
-210 -220 0
-210 -221 0
-210 -222 0
-210 -223 0
-210 -224 0
-211 -212 0
-211 -213 0
-211 -214 0
-211 -215 0
-211 -216 0
-211 -217 0
-211 -218 0
-211 -219 0
-211 -220 0
-211 -221 0
-211 -222 0
-211 -223 0
-211 -224 0
-212 -213 0
-212 -214 0
-212 -215 0
-212 -216 0
-212 -217 0
-212 -218 0
-212 -219 0
-212 -220 0
-212 -221 0
-212 -222 0
-212 -223 0
-212 -224 0
-213 -214 0
-213 -215 0
-213 -216 0
-213 -217 0
-213 -218 0
-213 -219 0
-213 -220 0
-213 -221 0
-213 -222 0
-213 -223 0
-213 -224 0
-214 -215 0
-214 -216 0
-214 -217 0
-214 -218 0
-214 -219 0
-214 -220 0
-214 -221 0
-214 -222 0
-214 -223 0
-214 -224 0
-215 -216 0
-215 -217 0
-215 -218 0
-215 -219 0
-215 -220 0
-215 -221 0
-215 -222 0
-215 -223 0
-215 -224 0
-216 -217 0
-216 -218 0
-216 -219 0
-216 -220 0
-216 -221 0
-216 -222 0
-216 -223 0
-216 -224 0
-217 -218 0
-217 -219 0
-217 -220 0
-217 -221 0
-217 -222 0
-217 -223 0
-217 -224 0
-218 -219 0
-218 -220 0
-218 -221 0
-218 -222 0
-218 -223 0
-218 -224 0
-219 -220 0
-219 -221 0
-219 -222 0
-219 -223 0
-219 -224 0
-220 -221 0
-220 -222 0
-220 -223 0
-220 -224 0
-221 -222 0
-221 -223 0
-221 -224 0
-222 -223 0
-222 -224 0
-223 -224 0
225 226 227 228 229 230 231 232 233 234 235 236 237 238 239 240 0
-225 -226 0
-225 -227 0
-225 -228 0
-225 -229 0
-225 -230 0
-225 -231 0
-225 -232 0
-225 -233 0
-225 -234 0
-225 -235 0
-225 -236 0
-225 -237 0
-225 -238 0
-225 -239 0
-225 -240 0
-226 -227 0
-226 -228 0
-226 -229 0
-226 -230 0
-226 -231 0
-226 -232 0
-226 -233 0
-226 -234 0
-226 -235 0
-226 -236 0
-226 -237 0
-226 -238 0
-226 -239 0
-226 -240 0
-227 -228 0
-227 -229 0
-227 -230 0
-227 -231 0
-227 -232 0
-227 -233 0
-227 -234 0
-227 -235 0
-227 -236 0
-227 -237 0
-227 -238 0
-227 -239 0
-227 -240 0
-228 -229 0
-228 -230 0
-228 -231 0
-228 -232 0
-228 -233 0
-228 -234 0
-228 -235 0
-228 -236 0
-228 -237 0
-228 -238 0
-228 -239 0
-228 -240 0
-229 -230 0
-229 -231 0
-229 -232 0
-229 -233 0
-229 -234 0
-229 -235 0
-229 -236 0
-229 -237 0
-229 -238 0
-229 -239 0
-229 -240 0
-230 -231 0
-230 -232 0
-230 -233 0
-230 -234 0
-230 -235 0
-230 -236 0
-230 -237 0
-230 -238 0
-230 -239 0
-230 -240 0
-231 -232 0
-231 -233 0
-231 -234 0
-231 -235 0
-231 -236 0
-231 -237 0
-231 -238 0
-231 -239 0
-231 -240 0
-232 -233 0
-232 -234 0
-232 -235 0
-232 -236 0
-232 -237 0
-232 -238 0
-232 -239 0
-232 -240 0
-233 -234 0
-233 -235 0
-233 -236 0
-233 -237 0
-233 -238 0
-233 -239 0
-233 -240 0
-234 -235 0
-234 -236 0
-234 -237 0
-234 -238 0
-234 -239 0
-234 -240 0
-235 -236 0
-235 -237 0
-235 -238 0
-235 -239 0
-235 -240 0
-236 -237 0
-236 -238 0
-236 -239 0
-236 -240 0
-237 -238 0
-237 -239 0
-237 -240 0
-238 -239 0
-238 -240 0
-239 -240 0
241 242 243 244 245 246 247 248 249 250 251 252 253 254 255 256 0
-241 -242 0
-241 -243 0
-241 -244 0
-241 -245 0
-241 -246 0
-241 -247 0
-241 -248 0
-241 -249 0
-241 -250 0
-241 -251 0
-241 -252 0
-241 -253 0
-241 -254 0
-241 -255 0
-241 -256 0
-242 -243 0
-242 -244 0
-242 -245 0
-242 -246 0
-242 -247 0
-242 -248 0
-242 -249 0
-242 -250 0
-242 -251 0
-242 -252 0
-242 -253 0
-242 -254 0
-242 -255 0
-242 -256 0
-243 -244 0
-243 -245 0
-243 -246 0
-243 -247 0
-243 -248 0
-243 -249 0
-243 -250 0
-243 -251 0
-243 -252 0
-243 -253 0
-243 -254 0
-243 -255 0
-243 -256 0
-244 -245 0
-244 -246 0
-244 -247 0
-244 -248 0
-244 -249 0
-244 -250 0
-244 -251 0
-244 -252 0
-244 -253 0
-244 -254 0
-244 -255 0
-244 -256 0
-245 -246 0
-245 -247 0
-245 -248 0
-245 -249 0
-245 -250 0
-245 -251 0
-245 -252 0
-245 -253 0
-245 -254 0
-245 -255 0
-245 -256 0
-246 -247 0
-246 -248 0
-246 -249 0
-246 -250 0
-246 -251 0
-246 -252 0
-246 -253 0
-246 -254 0
-246 -255 0
-246 -256 0
-247 -248 0
-247 -249 0
-247 -250 0
-247 -251 0
-247 -252 0
-247 -253 0
-247 -254 0
-247 -255 0
-247 -256 0
-248 -249 0
-248 -250 0
-248 -251 0
-248 -252 0
-248 -253 0
-248 -254 0
-248 -255 0
-248 -256 0
-249 -250 0
-249 -251 0
-249 -252 0
-249 -253 0
-249 -254 0
-249 -255 0
-249 -256 0
-250 -251 0
-250 -252 0
-250 -253 0
-250 -254 0
-250 -255 0
-250 -256 0
-251 -252 0
-251 -253 0
-251 -254 0
-251 -255 0
-251 -256 0
-252 -253 0
-252 -254 0
-252 -255 0
-252 -256 0
-253 -254 0
-253 -255 0
-253 -256 0
-254 -255 0
-254 -256 0
-255 -256 0
257 258 259 260 261 262 263 264 265 266 267 268 269 270 271 272 0
-257 -258 0
-257 -259 0
-257 -260 0
-257 -261 0
-257 -262 0
-257 -263 0
-257 -264 0
-257 -265 0
-257 -266 0
-257 -267 0
-257 -268 0
-257 -269 0
-257 -270 0
-257 -271 0
-257 -272 0
-258 -259 0
-258 -260 0
-258 -261 0
-258 -262 0
-258 -263 0
-258 -264 0
-258 -265 0
-258 -266 0
-258 -267 0
-258 -268 0
-258 -269 0
-258 -270 0
-258 -271 0
-258 -272 0
-259 -260 0
-259 -261 0
-259 -262 0
-259 -263 0
-259 -264 0
-259 -265 0
-259 -266 0
-259 -267 0
-259 -268 0
-259 -269 0
-259 -270 0
-259 -271 0
-259 -272 0
-260 -261 0
-260 -262 0
-260 -263 0
-260 -264 0
-260 -265 0
-260 -266 0
-260 -267 0
-260 -268 0
-260 -269 0
-260 -270 0
-260 -271 0
-260 -272 0
-261 -262 0
-261 -263 0
-261 -264 0
-261 -265 0
-261 -266 0
-261 -267 0
-261 -268 0
-261 -269 0
-261 -270 0
-261 -271 0
-261 -272 0
-262 -263 0
-262 -264 0
-262 -265 0
-262 -266 0
-262 -267 0
-262 -268 0
-262 -269 0
-262 -270 0
-262 -271 0
-262 -272 0
-263 -264 0
-263 -265 0
-263 -266 0
-263 -267 0
-263 -268 0
-263 -269 0
-263 -270 0
-263 -271 0
-263 -272 0
-264 -265 0
-264 -266 0
-264 -267 0
-264 -268 0
-264 -269 0
-264 -270 0
-264 -271 0
-264 -272 0
-265 -266 0
-265 -267 0
-265 -268 0
-265 -269 0
-265 -270 0
-265 -271 0
-265 -272 0
-266 -267 0
-266 -268 0
-266 -269 0
-266 -270 0
-266 -271 0
-266 -272 0
-267 -268 0
-267 -269 0
-267 -270 0
-267 -271 0
-267 -272 0
-268 -269 0
-268 -270 0
-268 -271 0
-268 -272 0
-269 -270 0
-269 -271 0
-269 -272 0
-270 -271 0
-270 -272 0
-271 -272 0
273 274 275 276 277 278 279 280 281 282 283 284 285 286 287 288 0
-273 -274 0
-273 -275 0
-273 -276 0
-273 -277 0
-273 -278 0
-273 -279 0
-273 -280 0
-273 -281 0
-273 -282 0
-273 -283 0
-273 -284 0
-273 -285 0
-273 -286 0
-273 -287 0
-273 -288 0
-274 -275 0
-274 -276 0
-274 -277 0
-274 -278 0
-274 -279 0
-274 -280 0
-274 -281 0
-274 -282 0
-274 -283 0
-274 -284 0
-274 -285 0
-274 -286 0
-274 -287 0
-274 -288 0
-275 -276 0
-275 -277 0
-275 -278 0
-275 -279 0
-275 -280 0
-275 -281 0
-275 -282 0
-275 -283 0
-275 -284 0
-275 -285 0
-275 -286 0
-275 -287 0
-275 -288 0
-276 -277 0
-276 -278 0
-276 -279 0
-276 -280 0
-276 -281 0
-276 -282 0
-276 -283 0
-276 -284 0
-276 -285 0
-276 -286 0
-276 -287 0
-276 -288 0
-277 -278 0
-277 -279 0
-277 -280 0
-277 -281 0
-277 -282 0
-277 -283 0
-277 -284 0
-277 -285 0
-277 -286 0
-277 -287 0
-277 -288 0
-278 -279 0
-278 -280 0
-278 -281 0
-278 -282 0
-278 -283 0
-278 -284 0
-278 -285 0
-278 -286 0
-278 -287 0
-278 -288 0
-279 -280 0
-279 -281 0
-279 -282 0
-279 -283 0
-279 -284 0
-279 -285 0
-279 -286 0
-279 -287 0
-279 -288 0
-280 -281 0
-280 -282 0
-280 -283 0
-280 -284 0
-280 -285 0
-280 -286 0
-280 -287 0
-280 -288 0
-281 -282 0
-281 -283 0
-281 -284 0
-281 -285 0
-281 -286 0
-281 -287 0
-281 -288 0
-282 -283 0
-282 -284 0
-282 -285 0
-282 -286 0
-282 -287 0
-282 -288 0
-283 -284 0
-283 -285 0
-283 -286 0
-283 -287 0
-283 -288 0
-284 -285 0
-284 -286 0
-284 -287 0
-284 -288 0
-285 -286 0
-285 -287 0
-285 -288 0
-286 -287 0
-286 -288 0
-287 -288 0
289 290 291 292 293 294 295 296 297 298 299 300 301 302 303 304 0
-289 -290 0
-289 -291 0
-289 -292 0
-289 -293 0
-289 -294 0
-289 -295 0
-289 -296 0
-289 -297 0
-289 -298 0
-289 -299 0
-289 -300 0
-289 -301 0
-289 -302 0
-289 -303 0
-289 -304 0
-290 -291 0
-290 -292 0
-290 -293 0
-290 -294 0
-290 -295 0
-290 -296 0
-290 -297 0
-290 -298 0
-290 -299 0
-290 -300 0
-290 -301 0
-290 -302 0
-290 -303 0
-290 -304 0
-291 -292 0
-291 -293 0
-291 -294 0
-291 -295 0
-291 -296 0
-291 -297 0
-291 -298 0
-291 -299 0
-291 -300 0
-291 -301 0
-291 -302 0
-291 -303 0
-291 -304 0
-292 -293 0
-292 -294 0
-292 -295 0
-292 -296 0
-292 -297 0
-292 -298 0
-292 -299 0
-292 -300 0
-292 -301 0
-292 -302 0
-292 -303 0
-292 -304 0
-293 -294 0
-293 -295 0
-293 -296 0
-293 -297 0
-293 -298 0
-293 -299 0
-293 -300 0
-293 -301 0
-293 -302 0
-293 -303 0
-293 -304 0
-294 -295 0
-294 -296 0
-294 -297 0
-294 -298 0
-294 -299 0
-294 -300 0
-294 -301 0
-294 -302 0
-294 -303 0
-294 -304 0
-295 -296 0
-295 -297 0
-295 -298 0
-295 -299 0
-295 -300 0
-295 -301 0
-295 -302 0
-295 -303 0
-295 -304 0
-296 -297 0
-296 -298 0
-296 -299 0
-296 -300 0
-296 -301 0
-296 -302 0
-296 -303 0
-296 -304 0
-297 -298 0
-297 -299 0
-297 -300 0
-297 -301 0
-297 -302 0
-297 -303 0
-297 -304 0
-298 -299 0
-298 -300 0
-298 -301 0
-298 -302 0
-298 -303 0
-298 -304 0
-299 -300 0
-299 -301 0
-299 -302 0
-299 -303 0
-299 -304 0
-300 -301 0
-300 -302 0
-300 -303 0
-300 -304 0
-301 -302 0
-301 -303 0
-301 -304 0
-302 -303 0
-302 -304 0
-303 -304 0
305 306 307 308 309 310 311 312 313 314 315 316 317 318 319 320 0
-305 -306 0
-305 -307 0
-305 -308 0
-305 -309 0
-305 -310 0
-305 -311 0
-305 -312 0
-305 -313 0
-305 -314 0
-305 -315 0
-305 -316 0
-305 -317 0
-305 -318 0
-305 -319 0
-305 -320 0
-306 -307 0
-306 -308 0
-306 -309 0
-306 -310 0
-306 -311 0
-306 -312 0
-306 -313 0
-306 -314 0
-306 -315 0
-306 -316 0
-306 -317 0
-306 -318 0
-306 -319 0
-306 -320 0
-307 -308 0
-307 -309 0
-307 -310 0
-307 -311 0
-307 -312 0
-307 -313 0
-307 -314 0
-307 -315 0
-307 -316 0
-307 -317 0
-307 -318 0
-307 -319 0
-307 -320 0
-308 -309 0
-308 -310 0
-308 -311 0
-308 -312 0
-308 -313 0
-308 -314 0
-308 -315 0
-308 -316 0
-308 -317 0
-308 -318 0
-308 -319 0
-308 -320 0
-309 -310 0
-309 -311 0
-309 -312 0
-309 -313 0
-309 -314 0
-309 -315 0
-309 -316 0
-309 -317 0
-309 -318 0
-309 -319 0
-309 -320 0
-310 -311 0
-310 -312 0
-310 -313 0
-310 -314 0
-310 -315 0
-310 -316 0
-310 -317 0
-310 -318 0
-310 -319 0
-310 -320 0
-311 -312 0
-311 -313 0
-311 -314 0
-311 -315 0
-311 -316 0
-311 -317 0
-311 -318 0
-311 -319 0
-311 -320 0
-312 -313 0
-312 -314 0
-312 -315 0
-312 -316 0
-312 -317 0
-312 -318 0
-312 -319 0
-312 -320 0
-313 -314 0
-313 -315 0
-313 -316 0
-313 -317 0
-313 -318 0
-313 -319 0
-313 -320 0
-314 -315 0
-314 -316 0
-314 -317 0
-314 -318 0
-314 -319 0
-314 -320 0
-315 -316 0
-315 -317 0
-315 -318 0
-315 -319 0
-315 -320 0
-316 -317 0
-316 -318 0
-316 -319 0
-316 -320 0
-317 -318 0
-317 -319 0
-317 -320 0
-318 -319 0
-318 -320 0
-319 -320 0
321 322 323 324 325 326 327 328 329 330 331 332 333 334 335 336 0
-321 -322 0
-321 -323 0
-321 -324 0
-321 -325 0
-321 -326 0
-321 -327 0
-321 -328 0
-321 -329 0
-321 -330 0
-321 -331 0
-321 -332 0
-321 -333 0
-321 -334 0
-321 -335 0
-321 -336 0
-322 -323 0
-322 -324 0
-322 -325 0
-322 -326 0
-322 -327 0
-322 -328 0
-322 -329 0
-322 -330 0
-322 -331 0
-322 -332 0
-322 -333 0
-322 -334 0
-322 -335 0
-322 -336 0
-323 -324 0
-323 -325 0
-323 -326 0
-323 -327 0
-323 -328 0
-323 -329 0
-323 -330 0
-323 -331 0
-323 -332 0
-323 -333 0
-323 -334 0
-323 -335 0
-323 -336 0
-324 -325 0
-324 -326 0
-324 -327 0
-324 -328 0
-324 -329 0
-324 -330 0
-324 -331 0
-324 -332 0
-324 -333 0
-324 -334 0
-324 -335 0
-324 -336 0
-325 -326 0
-325 -327 0
-325 -328 0
-325 -329 0
-325 -330 0
-325 -331 0
-325 -332 0
-325 -333 0
-325 -334 0
-325 -335 0
-325 -336 0
-326 -327 0
-326 -328 0
-326 -329 0
-326 -330 0
-326 -331 0
-326 -332 0
-326 -333 0
-326 -334 0
-326 -335 0
-326 -336 0
-327 -328 0
-327 -329 0
-327 -330 0
-327 -331 0
-327 -332 0
-327 -333 0
-327 -334 0
-327 -335 0
-327 -336 0
-328 -329 0
-328 -330 0
-328 -331 0
-328 -332 0
-328 -333 0
-328 -334 0
-328 -335 0
-328 -336 0
-329 -330 0
-329 -331 0
-329 -332 0
-329 -333 0
-329 -334 0
-329 -335 0
-329 -336 0
-330 -331 0
-330 -332 0
-330 -333 0
-330 -334 0
-330 -335 0
-330 -336 0
-331 -332 0
-331 -333 0
-331 -334 0
-331 -335 0
-331 -336 0
-332 -333 0
-332 -334 0
-332 -335 0
-332 -336 0
-333 -334 0
-333 -335 0
-333 -336 0
-334 -335 0
-334 -336 0
-335 -336 0
337 338 339 340 341 342 343 344 345 346 347 348 349 350 351 352 0
-337 -338 0
-337 -339 0
-337 -340 0
-337 -341 0
-337 -342 0
-337 -343 0
-337 -344 0
-337 -345 0
-337 -346 0
-337 -347 0
-337 -348 0
-337 -349 0
-337 -350 0
-337 -351 0
-337 -352 0
-338 -339 0
-338 -340 0
-338 -341 0
-338 -342 0
-338 -343 0
-338 -344 0
-338 -345 0
-338 -346 0
-338 -347 0
-338 -348 0
-338 -349 0
-338 -350 0
-338 -351 0
-338 -352 0
-339 -340 0
-339 -341 0
-339 -342 0
-339 -343 0
-339 -344 0
-339 -345 0
-339 -346 0
-339 -347 0
-339 -348 0
-339 -349 0
-339 -350 0
-339 -351 0
-339 -352 0
-340 -341 0
-340 -342 0
-340 -343 0
-340 -344 0
-340 -345 0
-340 -346 0
-340 -347 0
-340 -348 0
-340 -349 0
-340 -350 0
-340 -351 0
-340 -352 0
-341 -342 0
-341 -343 0
-341 -344 0
-341 -345 0
-341 -346 0
-341 -347 0
-341 -348 0
-341 -349 0
-341 -350 0
-341 -351 0
-341 -352 0
-342 -343 0
-342 -344 0
-342 -345 0
-342 -346 0
-342 -347 0
-342 -348 0
-342 -349 0
-342 -350 0
-342 -351 0
-342 -352 0
-343 -344 0
-343 -345 0
-343 -346 0
-343 -347 0
-343 -348 0
-343 -349 0
-343 -350 0
-343 -351 0
-343 -352 0
-344 -345 0
-344 -346 0
-344 -347 0
-344 -348 0
-344 -349 0
-344 -350 0
-344 -351 0
-344 -352 0
-345 -346 0
-345 -347 0
-345 -348 0
-345 -349 0
-345 -350 0
-345 -351 0
-345 -352 0
-346 -347 0
-346 -348 0
-346 -349 0
-346 -350 0
-346 -351 0
-346 -352 0
-347 -348 0
-347 -349 0
-347 -350 0
-347 -351 0
-347 -352 0
-348 -349 0
-348 -350 0
-348 -351 0
-348 -352 0
-349 -350 0
-349 -351 0
-349 -352 0
-350 -351 0
-350 -352 0
-351 -352 0
353 354 355 356 357 358 359 360 361 362 363 364 365 366 367 368 0
-353 -354 0
-353 -355 0
-353 -356 0
-353 -357 0
-353 -358 0
-353 -359 0
-353 -360 0
-353 -361 0
-353 -362 0
-353 -363 0
-353 -364 0
-353 -365 0
-353 -366 0
-353 -367 0
-353 -368 0
-354 -355 0
-354 -356 0
-354 -357 0
-354 -358 0
-354 -359 0
-354 -360 0
-354 -361 0
-354 -362 0
-354 -363 0
-354 -364 0
-354 -365 0
-354 -366 0
-354 -367 0
-354 -368 0
-355 -356 0
-355 -357 0
-355 -358 0
-355 -359 0
-355 -360 0
-355 -361 0
-355 -362 0
-355 -363 0
-355 -364 0
-355 -365 0
-355 -366 0
-355 -367 0
-355 -368 0
-356 -357 0
-356 -358 0
-356 -359 0
-356 -360 0
-356 -361 0
-356 -362 0
-356 -363 0
-356 -364 0
-356 -365 0
-356 -366 0
-356 -367 0
-356 -368 0
-357 -358 0
-357 -359 0
-357 -360 0
-357 -361 0
-357 -362 0
-357 -363 0
-357 -364 0
-357 -365 0
-357 -366 0
-357 -367 0
-357 -368 0
-358 -359 0
-358 -360 0
-358 -361 0
-358 -362 0
-358 -363 0
-358 -364 0
-358 -365 0
-358 -366 0
-358 -367 0
-358 -368 0
-359 -360 0
-359 -361 0
-359 -362 0
-359 -363 0
-359 -364 0
-359 -365 0
-359 -366 0
-359 -367 0
-359 -368 0
-360 -361 0
-360 -362 0
-360 -363 0
-360 -364 0
-360 -365 0
-360 -366 0
-360 -367 0
-360 -368 0
-361 -362 0
-361 -363 0
-361 -364 0
-361 -365 0
-361 -366 0
-361 -367 0
-361 -368 0
-362 -363 0
-362 -364 0
-362 -365 0
-362 -366 0
-362 -367 0
-362 -368 0
-363 -364 0
-363 -365 0
-363 -366 0
-363 -367 0
-363 -368 0
-364 -365 0
-364 -366 0
-364 -367 0
-364 -368 0
-365 -366 0
-365 -367 0
-365 -368 0
-366 -367 0
-366 -368 0
-367 -368 0
369 370 371 372 373 374 375 376 377 378 379 380 381 382 383 384 0
-369 -370 0
-369 -371 0
-369 -372 0
-369 -373 0
-369 -374 0
-369 -375 0
-369 -376 0
-369 -377 0
-369 -378 0
-369 -379 0
-369 -380 0
-369 -381 0
-369 -382 0
-369 -383 0
-369 -384 0
-370 -371 0
-370 -372 0
-370 -373 0
-370 -374 0
-370 -375 0
-370 -376 0
-370 -377 0
-370 -378 0
-370 -379 0
-370 -380 0
-370 -381 0
-370 -382 0
-370 -383 0
-370 -384 0
-371 -372 0
-371 -373 0
-371 -374 0
-371 -375 0
-371 -376 0
-371 -377 0
-371 -378 0
-371 -379 0
-371 -380 0
-371 -381 0
-371 -382 0
-371 -383 0
-371 -384 0
-372 -373 0
-372 -374 0
-372 -375 0
-372 -376 0
-372 -377 0
-372 -378 0
-372 -379 0
-372 -380 0
-372 -381 0
-372 -382 0
-372 -383 0
-372 -384 0
-373 -374 0
-373 -375 0
-373 -376 0
-373 -377 0
-373 -378 0
-373 -379 0
-373 -380 0
-373 -381 0
-373 -382 0
-373 -383 0
-373 -384 0
-374 -375 0
-374 -376 0
-374 -377 0
-374 -378 0
-374 -379 0
-374 -380 0
-374 -381 0
-374 -382 0
-374 -383 0
-374 -384 0
-375 -376 0
-375 -377 0
-375 -378 0
-375 -379 0
-375 -380 0
-375 -381 0
-375 -382 0
-375 -383 0
-375 -384 0
-376 -377 0
-376 -378 0
-376 -379 0
-376 -380 0
-376 -381 0
-376 -382 0
-376 -383 0
-376 -384 0
-377 -378 0
-377 -379 0
-377 -380 0
-377 -381 0
-377 -382 0
-377 -383 0
-377 -384 0
-378 -379 0
-378 -380 0
-378 -381 0
-378 -382 0
-378 -383 0
-378 -384 0
-379 -380 0
-379 -381 0
-379 -382 0
-379 -383 0
-379 -384 0
-380 -381 0
-380 -382 0
-380 -383 0
-380 -384 0
-381 -382 0
-381 -383 0
-381 -384 0
-382 -383 0
-382 -384 0
-383 -384 0
385 386 387 388 389 390 391 392 393 394 395 396 397 398 399 400 0
-385 -386 0
-385 -387 0
-385 -388 0
-385 -389 0
-385 -390 0
-385 -391 0
-385 -392 0
-385 -393 0
-385 -394 0
-385 -395 0
-385 -396 0
-385 -397 0
-385 -398 0
-385 -399 0
-385 -400 0
-386 -387 0
-386 -388 0
-386 -389 0
-386 -390 0
-386 -391 0
-386 -392 0
-386 -393 0
-386 -394 0
-386 -395 0
-386 -396 0
-386 -397 0
-386 -398 0
-386 -399 0
-386 -400 0
-387 -388 0
-387 -389 0
-387 -390 0
-387 -391 0
-387 -392 0
-387 -393 0
-387 -394 0
-387 -395 0
-387 -396 0
-387 -397 0
-387 -398 0
-387 -399 0
-387 -400 0
-388 -389 0
-388 -390 0
-388 -391 0
-388 -392 0
-388 -393 0
-388 -394 0
-388 -395 0
-388 -396 0
-388 -397 0
-388 -398 0
-388 -399 0
-388 -400 0
-389 -390 0
-389 -391 0
-389 -392 0
-389 -393 0
-389 -394 0
-389 -395 0
-389 -396 0
-389 -397 0
-389 -398 0
-389 -399 0
-389 -400 0
-390 -391 0
-390 -392 0
-390 -393 0
-390 -394 0
-390 -395 0
-390 -396 0
-390 -397 0
-390 -398 0
-390 -399 0
-390 -400 0
-391 -392 0
-391 -393 0
-391 -394 0
-391 -395 0
-391 -396 0
-391 -397 0
-391 -398 0
-391 -399 0
-391 -400 0
-392 -393 0
-392 -394 0
-392 -395 0
-392 -396 0
-392 -397 0
-392 -398 0
-392 -399 0
-392 -400 0
-393 -394 0
-393 -395 0
-393 -396 0
-393 -397 0
-393 -398 0
-393 -399 0
-393 -400 0
-394 -395 0
-394 -396 0
-394 -397 0
-394 -398 0
-394 -399 0
-394 -400 0
-395 -396 0
-395 -397 0
-395 -398 0
-395 -399 0
-395 -400 0
-396 -397 0
-396 -398 0
-396 -399 0
-396 -400 0
-397 -398 0
-397 -399 0
-397 -400 0
-398 -399 0
-398 -400 0
-399 -400 0
401 402 403 404 405 406 407 408 409 410 411 412 413 414 415 416 0
-401 -402 0
-401 -403 0
-401 -404 0
-401 -405 0
-401 -406 0
-401 -407 0
-401 -408 0
-401 -409 0
-401 -410 0
-401 -411 0
-401 -412 0
-401 -413 0
-401 -414 0
-401 -415 0
-401 -416 0
-402 -403 0
-402 -404 0
-402 -405 0
-402 -406 0
-402 -407 0
-402 -408 0
-402 -409 0
-402 -410 0
-402 -411 0
-402 -412 0
-402 -413 0
-402 -414 0
-402 -415 0
-402 -416 0
-403 -404 0
-403 -405 0
-403 -406 0
-403 -407 0
-403 -408 0
-403 -409 0
-403 -410 0
-403 -411 0
-403 -412 0
-403 -413 0
-403 -414 0
-403 -415 0
-403 -416 0
-404 -405 0
-404 -406 0
-404 -407 0
-404 -408 0
-404 -409 0
-404 -410 0
-404 -411 0
-404 -412 0
-404 -413 0
-404 -414 0
-404 -415 0
-404 -416 0
-405 -406 0
-405 -407 0
-405 -408 0
-405 -409 0
-405 -410 0
-405 -411 0
-405 -412 0
-405 -413 0
-405 -414 0
-405 -415 0
-405 -416 0
-406 -407 0
-406 -408 0
-406 -409 0
-406 -410 0
-406 -411 0
-406 -412 0
-406 -413 0
-406 -414 0
-406 -415 0
-406 -416 0
-407 -408 0
-407 -409 0
-407 -410 0
-407 -411 0
-407 -412 0
-407 -413 0
-407 -414 0
-407 -415 0
-407 -416 0
-408 -409 0
-408 -410 0
-408 -411 0
-408 -412 0
-408 -413 0
-408 -414 0
-408 -415 0
-408 -416 0
-409 -410 0
-409 -411 0
-409 -412 0
-409 -413 0
-409 -414 0
-409 -415 0
-409 -416 0
-410 -411 0
-410 -412 0
-410 -413 0
-410 -414 0
-410 -415 0
-410 -416 0
-411 -412 0
-411 -413 0
-411 -414 0
-411 -415 0
-411 -416 0
-412 -413 0
-412 -414 0
-412 -415 0
-412 -416 0
-413 -414 0
-413 -415 0
-413 -416 0
-414 -415 0
-414 -416 0
-415 -416 0
417 418 419 420 421 422 423 424 425 426 427 428 429 430 431 432 0
-417 -418 0
-417 -419 0
-417 -420 0
-417 -421 0
-417 -422 0
-417 -423 0
-417 -424 0
-417 -425 0
-417 -426 0
-417 -427 0
-417 -428 0
-417 -429 0
-417 -430 0
-417 -431 0
-417 -432 0
-418 -419 0
-418 -420 0
-418 -421 0
-418 -422 0
-418 -423 0
-418 -424 0
-418 -425 0
-418 -426 0
-418 -427 0
-418 -428 0
-418 -429 0
-418 -430 0
-418 -431 0
-418 -432 0
-419 -420 0
-419 -421 0
-419 -422 0
-419 -423 0
-419 -424 0
-419 -425 0
-419 -426 0
-419 -427 0
-419 -428 0
-419 -429 0
-419 -430 0
-419 -431 0
-419 -432 0
-420 -421 0
-420 -422 0
-420 -423 0
-420 -424 0
-420 -425 0
-420 -426 0
-420 -427 0
-420 -428 0
-420 -429 0
-420 -430 0
-420 -431 0
-420 -432 0
-421 -422 0
-421 -423 0
-421 -424 0
-421 -425 0
-421 -426 0
-421 -427 0
-421 -428 0
-421 -429 0
-421 -430 0
-421 -431 0
-421 -432 0
-422 -423 0
-422 -424 0
-422 -425 0
-422 -426 0
-422 -427 0
-422 -428 0
-422 -429 0
-422 -430 0
-422 -431 0
-422 -432 0
-423 -424 0
-423 -425 0
-423 -426 0
-423 -427 0
-423 -428 0
-423 -429 0
-423 -430 0
-423 -431 0
-423 -432 0
-424 -425 0
-424 -426 0
-424 -427 0
-424 -428 0
-424 -429 0
-424 -430 0
-424 -431 0
-424 -432 0
-425 -426 0
-425 -427 0
-425 -428 0
-425 -429 0
-425 -430 0
-425 -431 0
-425 -432 0
-426 -427 0
-426 -428 0
-426 -429 0
-426 -430 0
-426 -431 0
-426 -432 0
-427 -428 0
-427 -429 0
-427 -430 0
-427 -431 0
-427 -432 0
-428 -429 0
-428 -430 0
-428 -431 0
-428 -432 0
-429 -430 0
-429 -431 0
-429 -432 0
-430 -431 0
-430 -432 0
-431 -432 0
433 434 435 436 437 438 439 440 441 442 443 444 445 446 447 448 0
-433 -434 0
-433 -435 0
-433 -436 0
-433 -437 0
-433 -438 0
-433 -439 0
-433 -440 0
-433 -441 0
-433 -442 0
-433 -443 0
-433 -444 0
-433 -445 0
-433 -446 0
-433 -447 0
-433 -448 0
-434 -435 0
-434 -436 0
-434 -437 0
-434 -438 0
-434 -439 0
-434 -440 0
-434 -441 0
-434 -442 0
-434 -443 0
-434 -444 0
-434 -445 0
-434 -446 0
-434 -447 0
-434 -448 0
-435 -436 0
-435 -437 0
-435 -438 0
-435 -439 0
-435 -440 0
-435 -441 0
-435 -442 0
-435 -443 0
-435 -444 0
-435 -445 0
-435 -446 0
-435 -447 0
-435 -448 0
-436 -437 0
-436 -438 0
-436 -439 0
-436 -440 0
-436 -441 0
-436 -442 0
-436 -443 0
-436 -444 0
-436 -445 0
-436 -446 0
-436 -447 0
-436 -448 0
-437 -438 0
-437 -439 0
-437 -440 0
-437 -441 0
-437 -442 0
-437 -443 0
-437 -444 0
-437 -445 0
-437 -446 0
-437 -447 0
-437 -448 0
-438 -439 0
-438 -440 0
-438 -441 0
-438 -442 0
-438 -443 0
-438 -444 0
-438 -445 0
-438 -446 0
-438 -447 0
-438 -448 0
-439 -440 0
-439 -441 0
-439 -442 0
-439 -443 0
-439 -444 0
-439 -445 0
-439 -446 0
-439 -447 0
-439 -448 0
-440 -441 0
-440 -442 0
-440 -443 0
-440 -444 0
-440 -445 0
-440 -446 0
-440 -447 0
-440 -448 0
-441 -442 0
-441 -443 0
-441 -444 0
-441 -445 0
-441 -446 0
-441 -447 0
-441 -448 0
-442 -443 0
-442 -444 0
-442 -445 0
-442 -446 0
-442 -447 0
-442 -448 0
-443 -444 0
-443 -445 0
-443 -446 0
-443 -447 0
-443 -448 0
-444 -445 0
-444 -446 0
-444 -447 0
-444 -448 0
-445 -446 0
-445 -447 0
-445 -448 0
-446 -447 0
-446 -448 0
-447 -448 0
449 450 451 452 453 454 455 456 457 458 459 460 461 462 463 464 0
-449 -450 0
-449 -451 0
-449 -452 0
-449 -453 0
-449 -454 0
-449 -455 0
-449 -456 0
-449 -457 0
-449 -458 0
-449 -459 0
-449 -460 0
-449 -461 0
-449 -462 0
-449 -463 0
-449 -464 0
-450 -451 0
-450 -452 0
-450 -453 0
-450 -454 0
-450 -455 0
-450 -456 0
-450 -457 0
-450 -458 0
-450 -459 0
-450 -460 0
-450 -461 0
-450 -462 0
-450 -463 0
-450 -464 0
-451 -452 0
-451 -453 0
-451 -454 0
-451 -455 0
-451 -456 0
-451 -457 0
-451 -458 0
-451 -459 0
-451 -460 0
-451 -461 0
-451 -462 0
-451 -463 0
-451 -464 0
-452 -453 0
-452 -454 0
-452 -455 0
-452 -456 0
-452 -457 0
-452 -458 0
-452 -459 0
-452 -460 0
-452 -461 0
-452 -462 0
-452 -463 0
-452 -464 0
-453 -454 0
-453 -455 0
-453 -456 0
-453 -457 0
-453 -458 0
-453 -459 0
-453 -460 0
-453 -461 0
-453 -462 0
-453 -463 0
-453 -464 0
-454 -455 0
-454 -456 0
-454 -457 0
-454 -458 0
-454 -459 0
-454 -460 0
-454 -461 0
-454 -462 0
-454 -463 0
-454 -464 0
-455 -456 0
-455 -457 0
-455 -458 0
-455 -459 0
-455 -460 0
-455 -461 0
-455 -462 0
-455 -463 0
-455 -464 0
-456 -457 0
-456 -458 0
-456 -459 0
-456 -460 0
-456 -461 0
-456 -462 0
-456 -463 0
-456 -464 0
-457 -458 0
-457 -459 0
-457 -460 0
-457 -461 0
-457 -462 0
-457 -463 0
-457 -464 0
-458 -459 0
-458 -460 0
-458 -461 0
-458 -462 0
-458 -463 0
-458 -464 0
-459 -460 0
-459 -461 0
-459 -462 0
-459 -463 0
-459 -464 0
-460 -461 0
-460 -462 0
-460 -463 0
-460 -464 0
-461 -462 0
-461 -463 0
-461 -464 0
-462 -463 0
-462 -464 0
-463 -464 0
465 466 467 468 469 470 471 472 473 474 475 476 477 478 479 480 0
-465 -466 0
-465 -467 0
-465 -468 0
-465 -469 0
-465 -470 0
-465 -471 0
-465 -472 0
-465 -473 0
-465 -474 0
-465 -475 0
-465 -476 0
-465 -477 0
-465 -478 0
-465 -479 0
-465 -480 0
-466 -467 0
-466 -468 0
-466 -469 0
-466 -470 0
-466 -471 0
-466 -472 0
-466 -473 0
-466 -474 0
-466 -475 0
-466 -476 0
-466 -477 0
-466 -478 0
-466 -479 0
-466 -480 0
-467 -468 0
-467 -469 0
-467 -470 0
-467 -471 0
-467 -472 0
-467 -473 0
-467 -474 0
-467 -475 0
-467 -476 0
-467 -477 0
-467 -478 0
-467 -479 0
-467 -480 0
-468 -469 0
-468 -470 0
-468 -471 0
-468 -472 0
-468 -473 0
-468 -474 0
-468 -475 0
-468 -476 0
-468 -477 0
-468 -478 0
-468 -479 0
-468 -480 0
-469 -470 0
-469 -471 0
-469 -472 0
-469 -473 0
-469 -474 0
-469 -475 0
-469 -476 0
-469 -477 0
-469 -478 0
-469 -479 0
-469 -480 0
-470 -471 0
-470 -472 0
-470 -473 0
-470 -474 0
-470 -475 0
-470 -476 0
-470 -477 0
-470 -478 0
-470 -479 0
-470 -480 0
-471 -472 0
-471 -473 0
-471 -474 0
-471 -475 0
-471 -476 0
-471 -477 0
-471 -478 0
-471 -479 0
-471 -480 0
-472 -473 0
-472 -474 0
-472 -475 0
-472 -476 0
-472 -477 0
-472 -478 0
-472 -479 0
-472 -480 0
-473 -474 0
-473 -475 0
-473 -476 0
-473 -477 0
-473 -478 0
-473 -479 0
-473 -480 0
-474 -475 0
-474 -476 0
-474 -477 0
-474 -478 0
-474 -479 0
-474 -480 0
-475 -476 0
-475 -477 0
-475 -478 0
-475 -479 0
-475 -480 0
-476 -477 0
-476 -478 0
-476 -479 0
-476 -480 0
-477 -478 0
-477 -479 0
-477 -480 0
-478 -479 0
-478 -480 0
-479 -480 0
481 482 483 484 485 486 487 488 489 490 491 492 493 494 495 496 0
-481 -482 0
-481 -483 0
-481 -484 0
-481 -485 0
-481 -486 0
-481 -487 0
-481 -488 0
-481 -489 0
-481 -490 0
-481 -491 0
-481 -492 0
-481 -493 0
-481 -494 0
-481 -495 0
-481 -496 0
-482 -483 0
-482 -484 0
-482 -485 0
-482 -486 0
-482 -487 0
-482 -488 0
-482 -489 0
-482 -490 0
-482 -491 0
-482 -492 0
-482 -493 0
-482 -494 0
-482 -495 0
-482 -496 0
-483 -484 0
-483 -485 0
-483 -486 0
-483 -487 0
-483 -488 0
-483 -489 0
-483 -490 0
-483 -491 0
-483 -492 0
-483 -493 0
-483 -494 0
-483 -495 0
-483 -496 0
-484 -485 0
-484 -486 0
-484 -487 0
-484 -488 0
-484 -489 0
-484 -490 0
-484 -491 0
-484 -492 0
-484 -493 0
-484 -494 0
-484 -495 0
-484 -496 0
-485 -486 0
-485 -487 0
-485 -488 0
-485 -489 0
-485 -490 0
-485 -491 0
-485 -492 0
-485 -493 0
-485 -494 0
-485 -495 0
-485 -496 0
-486 -487 0
-486 -488 0
-486 -489 0
-486 -490 0
-486 -491 0
-486 -492 0
-486 -493 0
-486 -494 0
-486 -495 0
-486 -496 0
-487 -488 0
-487 -489 0
-487 -490 0
-487 -491 0
-487 -492 0
-487 -493 0
-487 -494 0
-487 -495 0
-487 -496 0
-488 -489 0
-488 -490 0
-488 -491 0
-488 -492 0
-488 -493 0
-488 -494 0
-488 -495 0
-488 -496 0
-489 -490 0
-489 -491 0
-489 -492 0
-489 -493 0
-489 -494 0
-489 -495 0
-489 -496 0
-490 -491 0
-490 -492 0
-490 -493 0
-490 -494 0
-490 -495 0
-490 -496 0
-491 -492 0
-491 -493 0
-491 -494 0
-491 -495 0
-491 -496 0
-492 -493 0
-492 -494 0
-492 -495 0
-492 -496 0
-493 -494 0
-493 -495 0
-493 -496 0
-494 -495 0
-494 -496 0
-495 -496 0
497 498 499 500 501 502 503 504 505 506 507 508 509 510 511 512 0
-497 -498 0
-497 -499 0
-497 -500 0
-497 -501 0
-497 -502 0
-497 -503 0
-497 -504 0
-497 -505 0
-497 -506 0
-497 -507 0
-497 -508 0
-497 -509 0
-497 -510 0
-497 -511 0
-497 -512 0
-498 -499 0
-498 -500 0
-498 -501 0
-498 -502 0
-498 -503 0
-498 -504 0
-498 -505 0
-498 -506 0
-498 -507 0
-498 -508 0
-498 -509 0
-498 -510 0
-498 -511 0
-498 -512 0
-499 -500 0
-499 -501 0
-499 -502 0
-499 -503 0
-499 -504 0
-499 -505 0
-499 -506 0
-499 -507 0
-499 -508 0
-499 -509 0
-499 -510 0
-499 -511 0
-499 -512 0
-500 -501 0
-500 -502 0
-500 -503 0
-500 -504 0
-500 -505 0
-500 -506 0
-500 -507 0
-500 -508 0
-500 -509 0
-500 -510 0
-500 -511 0
-500 -512 0
-501 -502 0
-501 -503 0
-501 -504 0
-501 -505 0
-501 -506 0
-501 -507 0
-501 -508 0
-501 -509 0
-501 -510 0
-501 -511 0
-501 -512 0
-502 -503 0
-502 -504 0
-502 -505 0
-502 -506 0
-502 -507 0
-502 -508 0
-502 -509 0
-502 -510 0
-502 -511 0
-502 -512 0
-503 -504 0
-503 -505 0
-503 -506 0
-503 -507 0
-503 -508 0
-503 -509 0
-503 -510 0
-503 -511 0
-503 -512 0
-504 -505 0
-504 -506 0
-504 -507 0
-504 -508 0
-504 -509 0
-504 -510 0
-504 -511 0
-504 -512 0
-505 -506 0
-505 -507 0
-505 -508 0
-505 -509 0
-505 -510 0
-505 -511 0
-505 -512 0
-506 -507 0
-506 -508 0
-506 -509 0
-506 -510 0
-506 -511 0
-506 -512 0
-507 -508 0
-507 -509 0
-507 -510 0
-507 -511 0
-507 -512 0
-508 -509 0
-508 -510 0
-508 -511 0
-508 -512 0
-509 -510 0
-509 -511 0
-509 -512 0
-510 -511 0
-510 -512 0
-511 -512 0
513 514 515 516 517 518 519 520 521 522 523 524 525 526 527 528 0
-513 -514 0
-513 -515 0
-513 -516 0
-513 -517 0
-513 -518 0
-513 -519 0
-513 -520 0
-513 -521 0
-513 -522 0
-513 -523 0
-513 -524 0
-513 -525 0
-513 -526 0
-513 -527 0
-513 -528 0
-514 -515 0
-514 -516 0
-514 -517 0
-514 -518 0
-514 -519 0
-514 -520 0
-514 -521 0
-514 -522 0
-514 -523 0
-514 -524 0
-514 -525 0
-514 -526 0
-514 -527 0
-514 -528 0
-515 -516 0
-515 -517 0
-515 -518 0
-515 -519 0
-515 -520 0
-515 -521 0
-515 -522 0
-515 -523 0
-515 -524 0
-515 -525 0
-515 -526 0
-515 -527 0
-515 -528 0
-516 -517 0
-516 -518 0
-516 -519 0
-516 -520 0
-516 -521 0
-516 -522 0
-516 -523 0
-516 -524 0
-516 -525 0
-516 -526 0
-516 -527 0
-516 -528 0
-517 -518 0
-517 -519 0
-517 -520 0
-517 -521 0
-517 -522 0
-517 -523 0
-517 -524 0
-517 -525 0
-517 -526 0
-517 -527 0
-517 -528 0
-518 -519 0
-518 -520 0
-518 -521 0
-518 -522 0
-518 -523 0
-518 -524 0
-518 -525 0
-518 -526 0
-518 -527 0
-518 -528 0
-519 -520 0
-519 -521 0
-519 -522 0
-519 -523 0
-519 -524 0
-519 -525 0
-519 -526 0
-519 -527 0
-519 -528 0
-520 -521 0
-520 -522 0
-520 -523 0
-520 -524 0
-520 -525 0
-520 -526 0
-520 -527 0
-520 -528 0
-521 -522 0
-521 -523 0
-521 -524 0
-521 -525 0
-521 -526 0
-521 -527 0
-521 -528 0
-522 -523 0
-522 -524 0
-522 -525 0
-522 -526 0
-522 -527 0
-522 -528 0
-523 -524 0
-523 -525 0
-523 -526 0
-523 -527 0
-523 -528 0
-524 -525 0
-524 -526 0
-524 -527 0
-524 -528 0
-525 -526 0
-525 -527 0
-525 -528 0
-526 -527 0
-526 -528 0
-527 -528 0
529 530 531 532 533 534 535 536 537 538 539 540 541 542 543 544 0
-529 -530 0
-529 -531 0
-529 -532 0
-529 -533 0
-529 -534 0
-529 -535 0
-529 -536 0
-529 -537 0
-529 -538 0
-529 -539 0
-529 -540 0
-529 -541 0
-529 -542 0
-529 -543 0
-529 -544 0
-530 -531 0
-530 -532 0
-530 -533 0
-530 -534 0
-530 -535 0
-530 -536 0
-530 -537 0
-530 -538 0
-530 -539 0
-530 -540 0
-530 -541 0
-530 -542 0
-530 -543 0
-530 -544 0
-531 -532 0
-531 -533 0
-531 -534 0
-531 -535 0
-531 -536 0
-531 -537 0
-531 -538 0
-531 -539 0
-531 -540 0
-531 -541 0
-531 -542 0
-531 -543 0
-531 -544 0
-532 -533 0
-532 -534 0
-532 -535 0
-532 -536 0
-532 -537 0
-532 -538 0
-532 -539 0
-532 -540 0
-532 -541 0
-532 -542 0
-532 -543 0
-532 -544 0
-533 -534 0
-533 -535 0
-533 -536 0
-533 -537 0
-533 -538 0
-533 -539 0
-533 -540 0
-533 -541 0
-533 -542 0
-533 -543 0
-533 -544 0
-534 -535 0
-534 -536 0
-534 -537 0
-534 -538 0
-534 -539 0
-534 -540 0
-534 -541 0
-534 -542 0
-534 -543 0
-534 -544 0
-535 -536 0
-535 -537 0
-535 -538 0
-535 -539 0
-535 -540 0
-535 -541 0
-535 -542 0
-535 -543 0
-535 -544 0
-536 -537 0
-536 -538 0
-536 -539 0
-536 -540 0
-536 -541 0
-536 -542 0
-536 -543 0
-536 -544 0
-537 -538 0
-537 -539 0
-537 -540 0
-537 -541 0
-537 -542 0
-537 -543 0
-537 -544 0
-538 -539 0
-538 -540 0
-538 -541 0
-538 -542 0
-538 -543 0
-538 -544 0
-539 -540 0
-539 -541 0
-539 -542 0
-539 -543 0
-539 -544 0
-540 -541 0
-540 -542 0
-540 -543 0
-540 -544 0
-541 -542 0
-541 -543 0
-541 -544 0
-542 -543 0
-542 -544 0
-543 -544 0
545 546 547 548 549 550 551 552 553 554 555 556 557 558 559 560 0
-545 -546 0
-545 -547 0
-545 -548 0
-545 -549 0
-545 -550 0
-545 -551 0
-545 -552 0
-545 -553 0
-545 -554 0
-545 -555 0
-545 -556 0
-545 -557 0
-545 -558 0
-545 -559 0
-545 -560 0
-546 -547 0
-546 -548 0
-546 -549 0
-546 -550 0
-546 -551 0
-546 -552 0
-546 -553 0
-546 -554 0
-546 -555 0
-546 -556 0
-546 -557 0
-546 -558 0
-546 -559 0
-546 -560 0
-547 -548 0
-547 -549 0
-547 -550 0
-547 -551 0
-547 -552 0
-547 -553 0
-547 -554 0
-547 -555 0
-547 -556 0
-547 -557 0
-547 -558 0
-547 -559 0
-547 -560 0
-548 -549 0
-548 -550 0
-548 -551 0
-548 -552 0
-548 -553 0
-548 -554 0
-548 -555 0
-548 -556 0
-548 -557 0
-548 -558 0
-548 -559 0
-548 -560 0
-549 -550 0
-549 -551 0
-549 -552 0
-549 -553 0
-549 -554 0
-549 -555 0
-549 -556 0
-549 -557 0
-549 -558 0
-549 -559 0
-549 -560 0
-550 -551 0
-550 -552 0
-550 -553 0
-550 -554 0
-550 -555 0
-550 -556 0
-550 -557 0
-550 -558 0
-550 -559 0
-550 -560 0
-551 -552 0
-551 -553 0
-551 -554 0
-551 -555 0
-551 -556 0
-551 -557 0
-551 -558 0
-551 -559 0
-551 -560 0
-552 -553 0
-552 -554 0
-552 -555 0
-552 -556 0
-552 -557 0
-552 -558 0
-552 -559 0
-552 -560 0
-553 -554 0
-553 -555 0
-553 -556 0
-553 -557 0
-553 -558 0
-553 -559 0
-553 -560 0
-554 -555 0
-554 -556 0
-554 -557 0
-554 -558 0
-554 -559 0
-554 -560 0
-555 -556 0
-555 -557 0
-555 -558 0
-555 -559 0
-555 -560 0
-556 -557 0
-556 -558 0
-556 -559 0
-556 -560 0
-557 -558 0
-557 -559 0
-557 -560 0
-558 -559 0
-558 -560 0
-559 -560 0
561 562 563 564 565 566 567 568 569 570 571 572 573 574 575 576 0
-561 -562 0
-561 -563 0
-561 -564 0
-561 -565 0
-561 -566 0
-561 -567 0
-561 -568 0
-561 -569 0
-561 -570 0
-561 -571 0
-561 -572 0
-561 -573 0
-561 -574 0
-561 -575 0
-561 -576 0
-562 -563 0
-562 -564 0
-562 -565 0
-562 -566 0
-562 -567 0
-562 -568 0
-562 -569 0
-562 -570 0
-562 -571 0
-562 -572 0
-562 -573 0
-562 -574 0
-562 -575 0
-562 -576 0
-563 -564 0
-563 -565 0
-563 -566 0
-563 -567 0
-563 -568 0
-563 -569 0
-563 -570 0
-563 -571 0
-563 -572 0
-563 -573 0
-563 -574 0
-563 -575 0
-563 -576 0
-564 -565 0
-564 -566 0
-564 -567 0
-564 -568 0
-564 -569 0
-564 -570 0
-564 -571 0
-564 -572 0
-564 -573 0
-564 -574 0
-564 -575 0
-564 -576 0
-565 -566 0
-565 -567 0
-565 -568 0
-565 -569 0
-565 -570 0
-565 -571 0
-565 -572 0
-565 -573 0
-565 -574 0
-565 -575 0
-565 -576 0
-566 -567 0
-566 -568 0
-566 -569 0
-566 -570 0
-566 -571 0
-566 -572 0
-566 -573 0
-566 -574 0
-566 -575 0
-566 -576 0
-567 -568 0
-567 -569 0
-567 -570 0
-567 -571 0
-567 -572 0
-567 -573 0
-567 -574 0
-567 -575 0
-567 -576 0
-568 -569 0
-568 -570 0
-568 -571 0
-568 -572 0
-568 -573 0
-568 -574 0
-568 -575 0
-568 -576 0
-569 -570 0
-569 -571 0
-569 -572 0
-569 -573 0
-569 -574 0
-569 -575 0
-569 -576 0
-570 -571 0
-570 -572 0
-570 -573 0
-570 -574 0
-570 -575 0
-570 -576 0
-571 -572 0
-571 -573 0
-571 -574 0
-571 -575 0
-571 -576 0
-572 -573 0
-572 -574 0
-572 -575 0
-572 -576 0
-573 -574 0
-573 -575 0
-573 -576 0
-574 -575 0
-574 -576 0
-575 -576 0
577 578 579 580 581 582 583 584 585 586 587 588 589 590 591 592 0
-577 -578 0
-577 -579 0
-577 -580 0
-577 -581 0
-577 -582 0
-577 -583 0
-577 -584 0
-577 -585 0
-577 -586 0
-577 -587 0
-577 -588 0
-577 -589 0
-577 -590 0
-577 -591 0
-577 -592 0
-578 -579 0
-578 -580 0
-578 -581 0
-578 -582 0
-578 -583 0
-578 -584 0
-578 -585 0
-578 -586 0
-578 -587 0
-578 -588 0
-578 -589 0
-578 -590 0
-578 -591 0
-578 -592 0
-579 -580 0
-579 -581 0
-579 -582 0
-579 -583 0
-579 -584 0
-579 -585 0
-579 -586 0
-579 -587 0
-579 -588 0
-579 -589 0
-579 -590 0
-579 -591 0
-579 -592 0
-580 -581 0
-580 -582 0
-580 -583 0
-580 -584 0
-580 -585 0
-580 -586 0
-580 -587 0
-580 -588 0
-580 -589 0
-580 -590 0
-580 -591 0
-580 -592 0
-581 -582 0
-581 -583 0
-581 -584 0
-581 -585 0
-581 -586 0
-581 -587 0
-581 -588 0
-581 -589 0
-581 -590 0
-581 -591 0
-581 -592 0
-582 -583 0
-582 -584 0
-582 -585 0
-582 -586 0
-582 -587 0
-582 -588 0
-582 -589 0
-582 -590 0
-582 -591 0
-582 -592 0
-583 -584 0
-583 -585 0
-583 -586 0
-583 -587 0
-583 -588 0
-583 -589 0
-583 -590 0
-583 -591 0
-583 -592 0
-584 -585 0
-584 -586 0
-584 -587 0
-584 -588 0
-584 -589 0
-584 -590 0
-584 -591 0
-584 -592 0
-585 -586 0
-585 -587 0
-585 -588 0
-585 -589 0
-585 -590 0
-585 -591 0
-585 -592 0
-586 -587 0
-586 -588 0
-586 -589 0
-586 -590 0
-586 -591 0
-586 -592 0
-587 -588 0
-587 -589 0
-587 -590 0
-587 -591 0
-587 -592 0
-588 -589 0
-588 -590 0
-588 -591 0
-588 -592 0
-589 -590 0
-589 -591 0
-589 -592 0
-590 -591 0
-590 -592 0
-591 -592 0
593 594 595 596 597 598 599 600 601 602 603 604 605 606 607 608 0
-593 -594 0
-593 -595 0
-593 -596 0
-593 -597 0
-593 -598 0
-593 -599 0
-593 -600 0
-593 -601 0
-593 -602 0
-593 -603 0
-593 -604 0
-593 -605 0
-593 -606 0
-593 -607 0
-593 -608 0
-594 -595 0
-594 -596 0
-594 -597 0
-594 -598 0
-594 -599 0
-594 -600 0
-594 -601 0
-594 -602 0
-594 -603 0
-594 -604 0
-594 -605 0
-594 -606 0
-594 -607 0
-594 -608 0
-595 -596 0
-595 -597 0
-595 -598 0
-595 -599 0
-595 -600 0
-595 -601 0
-595 -602 0
-595 -603 0
-595 -604 0
-595 -605 0
-595 -606 0
-595 -607 0
-595 -608 0
-596 -597 0
-596 -598 0
-596 -599 0
-596 -600 0
-596 -601 0
-596 -602 0
-596 -603 0
-596 -604 0
-596 -605 0
-596 -606 0
-596 -607 0
-596 -608 0
-597 -598 0
-597 -599 0
-597 -600 0
-597 -601 0
-597 -602 0
-597 -603 0
-597 -604 0
-597 -605 0
-597 -606 0
-597 -607 0
-597 -608 0
-598 -599 0
-598 -600 0
-598 -601 0
-598 -602 0
-598 -603 0
-598 -604 0
-598 -605 0
-598 -606 0
-598 -607 0
-598 -608 0
-599 -600 0
-599 -601 0
-599 -602 0
-599 -603 0
-599 -604 0
-599 -605 0
-599 -606 0
-599 -607 0
-599 -608 0
-600 -601 0
-600 -602 0
-600 -603 0
-600 -604 0
-600 -605 0
-600 -606 0
-600 -607 0
-600 -608 0
-601 -602 0
-601 -603 0
-601 -604 0
-601 -605 0
-601 -606 0
-601 -607 0
-601 -608 0
-602 -603 0
-602 -604 0
-602 -605 0
-602 -606 0
-602 -607 0
-602 -608 0
-603 -604 0
-603 -605 0
-603 -606 0
-603 -607 0
-603 -608 0
-604 -605 0
-604 -606 0
-604 -607 0
-604 -608 0
-605 -606 0
-605 -607 0
-605 -608 0
-606 -607 0
-606 -608 0
-607 -608 0
609 610 611 612 613 614 615 616 617 618 619 620 621 622 623 624 0
-609 -610 0
-609 -611 0
-609 -612 0
-609 -613 0
-609 -614 0
-609 -615 0
-609 -616 0
-609 -617 0
-609 -618 0
-609 -619 0
-609 -620 0
-609 -621 0
-609 -622 0
-609 -623 0
-609 -624 0
-610 -611 0
-610 -612 0
-610 -613 0
-610 -614 0
-610 -615 0
-610 -616 0
-610 -617 0
-610 -618 0
-610 -619 0
-610 -620 0
-610 -621 0
-610 -622 0
-610 -623 0
-610 -624 0
-611 -612 0
-611 -613 0
-611 -614 0
-611 -615 0
-611 -616 0
-611 -617 0
-611 -618 0
-611 -619 0
-611 -620 0
-611 -621 0
-611 -622 0
-611 -623 0
-611 -624 0
-612 -613 0
-612 -614 0
-612 -615 0
-612 -616 0
-612 -617 0
-612 -618 0
-612 -619 0
-612 -620 0
-612 -621 0
-612 -622 0
-612 -623 0
-612 -624 0
-613 -614 0
-613 -615 0
-613 -616 0
-613 -617 0
-613 -618 0
-613 -619 0
-613 -620 0
-613 -621 0
-613 -622 0
-613 -623 0
-613 -624 0
-614 -615 0
-614 -616 0
-614 -617 0
-614 -618 0
-614 -619 0
-614 -620 0
-614 -621 0
-614 -622 0
-614 -623 0
-614 -624 0
-615 -616 0
-615 -617 0
-615 -618 0
-615 -619 0
-615 -620 0
-615 -621 0
-615 -622 0
-615 -623 0
-615 -624 0
-616 -617 0
-616 -618 0
-616 -619 0
-616 -620 0
-616 -621 0
-616 -622 0
-616 -623 0
-616 -624 0
-617 -618 0
-617 -619 0
-617 -620 0
-617 -621 0
-617 -622 0
-617 -623 0
-617 -624 0
-618 -619 0
-618 -620 0
-618 -621 0
-618 -622 0
-618 -623 0
-618 -624 0
-619 -620 0
-619 -621 0
-619 -622 0
-619 -623 0
-619 -624 0
-620 -621 0
-620 -622 0
-620 -623 0
-620 -624 0
-621 -622 0
-621 -623 0
-621 -624 0
-622 -623 0
-622 -624 0
-623 -624 0
625 626 627 628 629 630 631 632 633 634 635 636 637 638 639 640 0
-625 -626 0
-625 -627 0
-625 -628 0
-625 -629 0
-625 -630 0
-625 -631 0
-625 -632 0
-625 -633 0
-625 -634 0
-625 -635 0
-625 -636 0
-625 -637 0
-625 -638 0
-625 -639 0
-625 -640 0
-626 -627 0
-626 -628 0
-626 -629 0
-626 -630 0
-626 -631 0
-626 -632 0
-626 -633 0
-626 -634 0
-626 -635 0
-626 -636 0
-626 -637 0
-626 -638 0
-626 -639 0
-626 -640 0
-627 -628 0
-627 -629 0
-627 -630 0
-627 -631 0
-627 -632 0
-627 -633 0
-627 -634 0
-627 -635 0
-627 -636 0
-627 -637 0
-627 -638 0
-627 -639 0
-627 -640 0
-628 -629 0
-628 -630 0
-628 -631 0
-628 -632 0
-628 -633 0
-628 -634 0
-628 -635 0
-628 -636 0
-628 -637 0
-628 -638 0
-628 -639 0
-628 -640 0
-629 -630 0
-629 -631 0
-629 -632 0
-629 -633 0
-629 -634 0
-629 -635 0
-629 -636 0
-629 -637 0
-629 -638 0
-629 -639 0
-629 -640 0
-630 -631 0
-630 -632 0
-630 -633 0
-630 -634 0
-630 -635 0
-630 -636 0
-630 -637 0
-630 -638 0
-630 -639 0
-630 -640 0
-631 -632 0
-631 -633 0
-631 -634 0
-631 -635 0
-631 -636 0
-631 -637 0
-631 -638 0
-631 -639 0
-631 -640 0
-632 -633 0
-632 -634 0
-632 -635 0
-632 -636 0
-632 -637 0
-632 -638 0
-632 -639 0
-632 -640 0
-633 -634 0
-633 -635 0
-633 -636 0
-633 -637 0
-633 -638 0
-633 -639 0
-633 -640 0
-634 -635 0
-634 -636 0
-634 -637 0
-634 -638 0
-634 -639 0
-634 -640 0
-635 -636 0
-635 -637 0
-635 -638 0
-635 -639 0
-635 -640 0
-636 -637 0
-636 -638 0
-636 -639 0
-636 -640 0
-637 -638 0
-637 -639 0
-637 -640 0
-638 -639 0
-638 -640 0
-639 -640 0
641 642 643 644 645 646 647 648 649 650 651 652 653 654 655 656 0
-641 -642 0
-641 -643 0
-641 -644 0
-641 -645 0
-641 -646 0
-641 -647 0
-641 -648 0
-641 -649 0
-641 -650 0
-641 -651 0
-641 -652 0
-641 -653 0
-641 -654 0
-641 -655 0
-641 -656 0
-642 -643 0
-642 -644 0
-642 -645 0
-642 -646 0
-642 -647 0
-642 -648 0
-642 -649 0
-642 -650 0
-642 -651 0
-642 -652 0
-642 -653 0
-642 -654 0
-642 -655 0
-642 -656 0
-643 -644 0
-643 -645 0
-643 -646 0
-643 -647 0
-643 -648 0
-643 -649 0
-643 -650 0
-643 -651 0
-643 -652 0
-643 -653 0
-643 -654 0
-643 -655 0
-643 -656 0
-644 -645 0
-644 -646 0
-644 -647 0
-644 -648 0
-644 -649 0
-644 -650 0
-644 -651 0
-644 -652 0
-644 -653 0
-644 -654 0
-644 -655 0
-644 -656 0
-645 -646 0
-645 -647 0
-645 -648 0
-645 -649 0
-645 -650 0
-645 -651 0
-645 -652 0
-645 -653 0
-645 -654 0
-645 -655 0
-645 -656 0
-646 -647 0
-646 -648 0
-646 -649 0
-646 -650 0
-646 -651 0
-646 -652 0
-646 -653 0
-646 -654 0
-646 -655 0
-646 -656 0
-647 -648 0
-647 -649 0
-647 -650 0
-647 -651 0
-647 -652 0
-647 -653 0
-647 -654 0
-647 -655 0
-647 -656 0
-648 -649 0
-648 -650 0
-648 -651 0
-648 -652 0
-648 -653 0
-648 -654 0
-648 -655 0
-648 -656 0
-649 -650 0
-649 -651 0
-649 -652 0
-649 -653 0
-649 -654 0
-649 -655 0
-649 -656 0
-650 -651 0
-650 -652 0
-650 -653 0
-650 -654 0
-650 -655 0
-650 -656 0
-651 -652 0
-651 -653 0
-651 -654 0
-651 -655 0
-651 -656 0
-652 -653 0
-652 -654 0
-652 -655 0
-652 -656 0
-653 -654 0
-653 -655 0
-653 -656 0
-654 -655 0
-654 -656 0
-655 -656 0
657 658 659 660 661 662 663 664 665 666 667 668 669 670 671 672 0
-657 -658 0
-657 -659 0
-657 -660 0
-657 -661 0
-657 -662 0
-657 -663 0
-657 -664 0
-657 -665 0
-657 -666 0
-657 -667 0
-657 -668 0
-657 -669 0
-657 -670 0
-657 -671 0
-657 -672 0
-658 -659 0
-658 -660 0
-658 -661 0
-658 -662 0
-658 -663 0
-658 -664 0
-658 -665 0
-658 -666 0
-658 -667 0
-658 -668 0
-658 -669 0
-658 -670 0
-658 -671 0
-658 -672 0
-659 -660 0
-659 -661 0
-659 -662 0
-659 -663 0
-659 -664 0
-659 -665 0
-659 -666 0
-659 -667 0
-659 -668 0
-659 -669 0
-659 -670 0
-659 -671 0
-659 -672 0
-660 -661 0
-660 -662 0
-660 -663 0
-660 -664 0
-660 -665 0
-660 -666 0
-660 -667 0
-660 -668 0
-660 -669 0
-660 -670 0
-660 -671 0
-660 -672 0
-661 -662 0
-661 -663 0
-661 -664 0
-661 -665 0
-661 -666 0
-661 -667 0
-661 -668 0
-661 -669 0
-661 -670 0
-661 -671 0
-661 -672 0
-662 -663 0
-662 -664 0
-662 -665 0
-662 -666 0
-662 -667 0
-662 -668 0
-662 -669 0
-662 -670 0
-662 -671 0
-662 -672 0
-663 -664 0
-663 -665 0
-663 -666 0
-663 -667 0
-663 -668 0
-663 -669 0
-663 -670 0
-663 -671 0
-663 -672 0
-664 -665 0
-664 -666 0
-664 -667 0
-664 -668 0
-664 -669 0
-664 -670 0
-664 -671 0
-664 -672 0
-665 -666 0
-665 -667 0
-665 -668 0
-665 -669 0
-665 -670 0
-665 -671 0
-665 -672 0
-666 -667 0
-666 -668 0
-666 -669 0
-666 -670 0
-666 -671 0
-666 -672 0
-667 -668 0
-667 -669 0
-667 -670 0
-667 -671 0
-667 -672 0
-668 -669 0
-668 -670 0
-668 -671 0
-668 -672 0
-669 -670 0
-669 -671 0
-669 -672 0
-670 -671 0
-670 -672 0
-671 -672 0
673 674 675 676 677 678 679 680 681 682 683 684 685 686 687 688 0
-673 -674 0
-673 -675 0
-673 -676 0
-673 -677 0
-673 -678 0
-673 -679 0
-673 -680 0
-673 -681 0
-673 -682 0
-673 -683 0
-673 -684 0
-673 -685 0
-673 -686 0
-673 -687 0
-673 -688 0
-674 -675 0
-674 -676 0
-674 -677 0
-674 -678 0
-674 -679 0
-674 -680 0
-674 -681 0
-674 -682 0
-674 -683 0
-674 -684 0
-674 -685 0
-674 -686 0
-674 -687 0
-674 -688 0
-675 -676 0
-675 -677 0
-675 -678 0
-675 -679 0
-675 -680 0
-675 -681 0
-675 -682 0
-675 -683 0
-675 -684 0
-675 -685 0
-675 -686 0
-675 -687 0
-675 -688 0
-676 -677 0
-676 -678 0
-676 -679 0
-676 -680 0
-676 -681 0
-676 -682 0
-676 -683 0
-676 -684 0
-676 -685 0
-676 -686 0
-676 -687 0
-676 -688 0
-677 -678 0
-677 -679 0
-677 -680 0
-677 -681 0
-677 -682 0
-677 -683 0
-677 -684 0
-677 -685 0
-677 -686 0
-677 -687 0
-677 -688 0
-678 -679 0
-678 -680 0
-678 -681 0
-678 -682 0
-678 -683 0
-678 -684 0
-678 -685 0
-678 -686 0
-678 -687 0
-678 -688 0
-679 -680 0
-679 -681 0
-679 -682 0
-679 -683 0
-679 -684 0
-679 -685 0
-679 -686 0
-679 -687 0
-679 -688 0
-680 -681 0
-680 -682 0
-680 -683 0
-680 -684 0
-680 -685 0
-680 -686 0
-680 -687 0
-680 -688 0
-681 -682 0
-681 -683 0
-681 -684 0
-681 -685 0
-681 -686 0
-681 -687 0
-681 -688 0
-682 -683 0
-682 -684 0
-682 -685 0
-682 -686 0
-682 -687 0
-682 -688 0
-683 -684 0
-683 -685 0
-683 -686 0
-683 -687 0
-683 -688 0
-684 -685 0
-684 -686 0
-684 -687 0
-684 -688 0
-685 -686 0
-685 -687 0
-685 -688 0
-686 -687 0
-686 -688 0
-687 -688 0
689 690 691 692 693 694 695 696 697 698 699 700 701 702 703 704 0
-689 -690 0
-689 -691 0
-689 -692 0
-689 -693 0
-689 -694 0
-689 -695 0
-689 -696 0
-689 -697 0
-689 -698 0
-689 -699 0
-689 -700 0
-689 -701 0
-689 -702 0
-689 -703 0
-689 -704 0
-690 -691 0
-690 -692 0
-690 -693 0
-690 -694 0
-690 -695 0
-690 -696 0
-690 -697 0
-690 -698 0
-690 -699 0
-690 -700 0
-690 -701 0
-690 -702 0
-690 -703 0
-690 -704 0
-691 -692 0
-691 -693 0
-691 -694 0
-691 -695 0
-691 -696 0
-691 -697 0
-691 -698 0
-691 -699 0
-691 -700 0
-691 -701 0
-691 -702 0
-691 -703 0
-691 -704 0
-692 -693 0
-692 -694 0
-692 -695 0
-692 -696 0
-692 -697 0
-692 -698 0
-692 -699 0
-692 -700 0
-692 -701 0
-692 -702 0
-692 -703 0
-692 -704 0
-693 -694 0
-693 -695 0
-693 -696 0
-693 -697 0
-693 -698 0
-693 -699 0
-693 -700 0
-693 -701 0
-693 -702 0
-693 -703 0
-693 -704 0
-694 -695 0
-694 -696 0
-694 -697 0
-694 -698 0
-694 -699 0
-694 -700 0
-694 -701 0
-694 -702 0
-694 -703 0
-694 -704 0
-695 -696 0
-695 -697 0
-695 -698 0
-695 -699 0
-695 -700 0
-695 -701 0
-695 -702 0
-695 -703 0
-695 -704 0
-696 -697 0
-696 -698 0
-696 -699 0
-696 -700 0
-696 -701 0
-696 -702 0
-696 -703 0
-696 -704 0
-697 -698 0
-697 -699 0
-697 -700 0
-697 -701 0
-697 -702 0
-697 -703 0
-697 -704 0
-698 -699 0
-698 -700 0
-698 -701 0
-698 -702 0
-698 -703 0
-698 -704 0
-699 -700 0
-699 -701 0
-699 -702 0
-699 -703 0
-699 -704 0
-700 -701 0
-700 -702 0
-700 -703 0
-700 -704 0
-701 -702 0
-701 -703 0
-701 -704 0
-702 -703 0
-702 -704 0
-703 -704 0
705 706 707 708 709 710 711 712 713 714 715 716 717 718 719 720 0
-705 -706 0
-705 -707 0
-705 -708 0
-705 -709 0
-705 -710 0
-705 -711 0
-705 -712 0
-705 -713 0
-705 -714 0
-705 -715 0
-705 -716 0
-705 -717 0
-705 -718 0
-705 -719 0
-705 -720 0
-706 -707 0
-706 -708 0
-706 -709 0
-706 -710 0
-706 -711 0
-706 -712 0
-706 -713 0
-706 -714 0
-706 -715 0
-706 -716 0
-706 -717 0
-706 -718 0
-706 -719 0
-706 -720 0
-707 -708 0
-707 -709 0
-707 -710 0
-707 -711 0
-707 -712 0
-707 -713 0
-707 -714 0
-707 -715 0
-707 -716 0
-707 -717 0
-707 -718 0
-707 -719 0
-707 -720 0
-708 -709 0
-708 -710 0
-708 -711 0
-708 -712 0
-708 -713 0
-708 -714 0
-708 -715 0
-708 -716 0
-708 -717 0
-708 -718 0
-708 -719 0
-708 -720 0
-709 -710 0
-709 -711 0
-709 -712 0
-709 -713 0
-709 -714 0
-709 -715 0
-709 -716 0
-709 -717 0
-709 -718 0
-709 -719 0
-709 -720 0
-710 -711 0
-710 -712 0
-710 -713 0
-710 -714 0
-710 -715 0
-710 -716 0
-710 -717 0
-710 -718 0
-710 -719 0
-710 -720 0
-711 -712 0
-711 -713 0
-711 -714 0
-711 -715 0
-711 -716 0
-711 -717 0
-711 -718 0
-711 -719 0
-711 -720 0
-712 -713 0
-712 -714 0
-712 -715 0
-712 -716 0
-712 -717 0
-712 -718 0
-712 -719 0
-712 -720 0
-713 -714 0
-713 -715 0
-713 -716 0
-713 -717 0
-713 -718 0
-713 -719 0
-713 -720 0
-714 -715 0
-714 -716 0
-714 -717 0
-714 -718 0
-714 -719 0
-714 -720 0
-715 -716 0
-715 -717 0
-715 -718 0
-715 -719 0
-715 -720 0
-716 -717 0
-716 -718 0
-716 -719 0
-716 -720 0
-717 -718 0
-717 -719 0
-717 -720 0
-718 -719 0
-718 -720 0
-719 -720 0
721 722 723 724 725 726 727 728 729 730 731 732 733 734 735 736 0
-721 -722 0
-721 -723 0
-721 -724 0
-721 -725 0
-721 -726 0
-721 -727 0
-721 -728 0
-721 -729 0
-721 -730 0
-721 -731 0
-721 -732 0
-721 -733 0
-721 -734 0
-721 -735 0
-721 -736 0
-722 -723 0
-722 -724 0
-722 -725 0
-722 -726 0
-722 -727 0
-722 -728 0
-722 -729 0
-722 -730 0
-722 -731 0
-722 -732 0
-722 -733 0
-722 -734 0
-722 -735 0
-722 -736 0
-723 -724 0
-723 -725 0
-723 -726 0
-723 -727 0
-723 -728 0
-723 -729 0
-723 -730 0
-723 -731 0
-723 -732 0
-723 -733 0
-723 -734 0
-723 -735 0
-723 -736 0
-724 -725 0
-724 -726 0
-724 -727 0
-724 -728 0
-724 -729 0
-724 -730 0
-724 -731 0
-724 -732 0
-724 -733 0
-724 -734 0
-724 -735 0
-724 -736 0
-725 -726 0
-725 -727 0
-725 -728 0
-725 -729 0
-725 -730 0
-725 -731 0
-725 -732 0
-725 -733 0
-725 -734 0
-725 -735 0
-725 -736 0
-726 -727 0
-726 -728 0
-726 -729 0
-726 -730 0
-726 -731 0
-726 -732 0
-726 -733 0
-726 -734 0
-726 -735 0
-726 -736 0
-727 -728 0
-727 -729 0
-727 -730 0
-727 -731 0
-727 -732 0
-727 -733 0
-727 -734 0
-727 -735 0
-727 -736 0
-728 -729 0
-728 -730 0
-728 -731 0
-728 -732 0
-728 -733 0
-728 -734 0
-728 -735 0
-728 -736 0
-729 -730 0
-729 -731 0
-729 -732 0
-729 -733 0
-729 -734 0
-729 -735 0
-729 -736 0
-730 -731 0
-730 -732 0
-730 -733 0
-730 -734 0
-730 -735 0
-730 -736 0
-731 -732 0
-731 -733 0
-731 -734 0
-731 -735 0
-731 -736 0
-732 -733 0
-732 -734 0
-732 -735 0
-732 -736 0
-733 -734 0
-733 -735 0
-733 -736 0
-734 -735 0
-734 -736 0
-735 -736 0
737 738 739 740 741 742 743 744 745 746 747 748 749 750 751 752 0
-737 -738 0
-737 -739 0
-737 -740 0
-737 -741 0
-737 -742 0
-737 -743 0
-737 -744 0
-737 -745 0
-737 -746 0
-737 -747 0
-737 -748 0
-737 -749 0
-737 -750 0
-737 -751 0
-737 -752 0
-738 -739 0
-738 -740 0
-738 -741 0
-738 -742 0
-738 -743 0
-738 -744 0
-738 -745 0
-738 -746 0
-738 -747 0
-738 -748 0
-738 -749 0
-738 -750 0
-738 -751 0
-738 -752 0
-739 -740 0
-739 -741 0
-739 -742 0
-739 -743 0
-739 -744 0
-739 -745 0
-739 -746 0
-739 -747 0
-739 -748 0
-739 -749 0
-739 -750 0
-739 -751 0
-739 -752 0
-740 -741 0
-740 -742 0
-740 -743 0
-740 -744 0
-740 -745 0
-740 -746 0
-740 -747 0
-740 -748 0
-740 -749 0
-740 -750 0
-740 -751 0
-740 -752 0
-741 -742 0
-741 -743 0
-741 -744 0
-741 -745 0
-741 -746 0
-741 -747 0
-741 -748 0
-741 -749 0
-741 -750 0
-741 -751 0
-741 -752 0
-742 -743 0
-742 -744 0
-742 -745 0
-742 -746 0
-742 -747 0
-742 -748 0
-742 -749 0
-742 -750 0
-742 -751 0
-742 -752 0
-743 -744 0
-743 -745 0
-743 -746 0
-743 -747 0
-743 -748 0
-743 -749 0
-743 -750 0
-743 -751 0
-743 -752 0
-744 -745 0
-744 -746 0
-744 -747 0
-744 -748 0
-744 -749 0
-744 -750 0
-744 -751 0
-744 -752 0
-745 -746 0
-745 -747 0
-745 -748 0
-745 -749 0
-745 -750 0
-745 -751 0
-745 -752 0
-746 -747 0
-746 -748 0
-746 -749 0
-746 -750 0
-746 -751 0
-746 -752 0
-747 -748 0
-747 -749 0
-747 -750 0
-747 -751 0
-747 -752 0
-748 -749 0
-748 -750 0
-748 -751 0
-748 -752 0
-749 -750 0
-749 -751 0
-749 -752 0
-750 -751 0
-750 -752 0
-751 -752 0
753 754 755 756 757 758 759 760 761 762 763 764 765 766 767 768 0
-753 -754 0
-753 -755 0
-753 -756 0
-753 -757 0
-753 -758 0
-753 -759 0
-753 -760 0
-753 -761 0
-753 -762 0
-753 -763 0
-753 -764 0
-753 -765 0
-753 -766 0
-753 -767 0
-753 -768 0
-754 -755 0
-754 -756 0
-754 -757 0
-754 -758 0
-754 -759 0
-754 -760 0
-754 -761 0
-754 -762 0
-754 -763 0
-754 -764 0
-754 -765 0
-754 -766 0
-754 -767 0
-754 -768 0
-755 -756 0
-755 -757 0
-755 -758 0
-755 -759 0
-755 -760 0
-755 -761 0
-755 -762 0
-755 -763 0
-755 -764 0
-755 -765 0
-755 -766 0
-755 -767 0
-755 -768 0
-756 -757 0
-756 -758 0
-756 -759 0
-756 -760 0
-756 -761 0
-756 -762 0
-756 -763 0
-756 -764 0
-756 -765 0
-756 -766 0
-756 -767 0
-756 -768 0
-757 -758 0
-757 -759 0
-757 -760 0
-757 -761 0
-757 -762 0
-757 -763 0
-757 -764 0
-757 -765 0
-757 -766 0
-757 -767 0
-757 -768 0
-758 -759 0
-758 -760 0
-758 -761 0
-758 -762 0
-758 -763 0
-758 -764 0
-758 -765 0
-758 -766 0
-758 -767 0
-758 -768 0
-759 -760 0
-759 -761 0
-759 -762 0
-759 -763 0
-759 -764 0
-759 -765 0
-759 -766 0
-759 -767 0
-759 -768 0
-760 -761 0
-760 -762 0
-760 -763 0
-760 -764 0
-760 -765 0
-760 -766 0
-760 -767 0
-760 -768 0
-761 -762 0
-761 -763 0
-761 -764 0
-761 -765 0
-761 -766 0
-761 -767 0
-761 -768 0
-762 -763 0
-762 -764 0
-762 -765 0
-762 -766 0
-762 -767 0
-762 -768 0
-763 -764 0
-763 -765 0
-763 -766 0
-763 -767 0
-763 -768 0
-764 -765 0
-764 -766 0
-764 -767 0
-764 -768 0
-765 -766 0
-765 -767 0
-765 -768 0
-766 -767 0
-766 -768 0
-767 -768 0
769 770 771 772 773 774 775 776 777 778 779 780 781 782 783 784 0
-769 -770 0
-769 -771 0
-769 -772 0
-769 -773 0
-769 -774 0
-769 -775 0
-769 -776 0
-769 -777 0
-769 -778 0
-769 -779 0
-769 -780 0
-769 -781 0
-769 -782 0
-769 -783 0
-769 -784 0
-770 -771 0
-770 -772 0
-770 -773 0
-770 -774 0
-770 -775 0
-770 -776 0
-770 -777 0
-770 -778 0
-770 -779 0
-770 -780 0
-770 -781 0
-770 -782 0
-770 -783 0
-770 -784 0
-771 -772 0
-771 -773 0
-771 -774 0
-771 -775 0
-771 -776 0
-771 -777 0
-771 -778 0
-771 -779 0
-771 -780 0
-771 -781 0
-771 -782 0
-771 -783 0
-771 -784 0
-772 -773 0
-772 -774 0
-772 -775 0
-772 -776 0
-772 -777 0
-772 -778 0
-772 -779 0
-772 -780 0
-772 -781 0
-772 -782 0
-772 -783 0
-772 -784 0
-773 -774 0
-773 -775 0
-773 -776 0
-773 -777 0
-773 -778 0
-773 -779 0
-773 -780 0
-773 -781 0
-773 -782 0
-773 -783 0
-773 -784 0
-774 -775 0
-774 -776 0
-774 -777 0
-774 -778 0
-774 -779 0
-774 -780 0
-774 -781 0
-774 -782 0
-774 -783 0
-774 -784 0
-775 -776 0
-775 -777 0
-775 -778 0
-775 -779 0
-775 -780 0
-775 -781 0
-775 -782 0
-775 -783 0
-775 -784 0
-776 -777 0
-776 -778 0
-776 -779 0
-776 -780 0
-776 -781 0
-776 -782 0
-776 -783 0
-776 -784 0
-777 -778 0
-777 -779 0
-777 -780 0
-777 -781 0
-777 -782 0
-777 -783 0
-777 -784 0
-778 -779 0
-778 -780 0
-778 -781 0
-778 -782 0
-778 -783 0
-778 -784 0
-779 -780 0
-779 -781 0
-779 -782 0
-779 -783 0
-779 -784 0
-780 -781 0
-780 -782 0
-780 -783 0
-780 -784 0
-781 -782 0
-781 -783 0
-781 -784 0
-782 -783 0
-782 -784 0
-783 -784 0
785 786 787 788 789 790 791 792 793 794 795 796 797 798 799 800 0
-785 -786 0
-785 -787 0
-785 -788 0
-785 -789 0
-785 -790 0
-785 -791 0
-785 -792 0
-785 -793 0
-785 -794 0
-785 -795 0
-785 -796 0
-785 -797 0
-785 -798 0
-785 -799 0
-785 -800 0
-786 -787 0
-786 -788 0
-786 -789 0
-786 -790 0
-786 -791 0
-786 -792 0
-786 -793 0
-786 -794 0
-786 -795 0
-786 -796 0
-786 -797 0
-786 -798 0
-786 -799 0
-786 -800 0
-787 -788 0
-787 -789 0
-787 -790 0
-787 -791 0
-787 -792 0
-787 -793 0
-787 -794 0
-787 -795 0
-787 -796 0
-787 -797 0
-787 -798 0
-787 -799 0
-787 -800 0
-788 -789 0
-788 -790 0
-788 -791 0
-788 -792 0
-788 -793 0
-788 -794 0
-788 -795 0
-788 -796 0
-788 -797 0
-788 -798 0
-788 -799 0
-788 -800 0
-789 -790 0
-789 -791 0
-789 -792 0
-789 -793 0
-789 -794 0
-789 -795 0
-789 -796 0
-789 -797 0
-789 -798 0
-789 -799 0
-789 -800 0
-790 -791 0
-790 -792 0
-790 -793 0
-790 -794 0
-790 -795 0
-790 -796 0
-790 -797 0
-790 -798 0
-790 -799 0
-790 -800 0
-791 -792 0
-791 -793 0
-791 -794 0
-791 -795 0
-791 -796 0
-791 -797 0
-791 -798 0
-791 -799 0
-791 -800 0
-792 -793 0
-792 -794 0
-792 -795 0
-792 -796 0
-792 -797 0
-792 -798 0
-792 -799 0
-792 -800 0
-793 -794 0
-793 -795 0
-793 -796 0
-793 -797 0
-793 -798 0
-793 -799 0
-793 -800 0
-794 -795 0
-794 -796 0
-794 -797 0
-794 -798 0
-794 -799 0
-794 -800 0
-795 -796 0
-795 -797 0
-795 -798 0
-795 -799 0
-795 -800 0
-796 -797 0
-796 -798 0
-796 -799 0
-796 -800 0
-797 -798 0
-797 -799 0
-797 -800 0
-798 -799 0
-798 -800 0
-799 -800 0
801 802 803 804 805 806 807 808 809 810 811 812 813 814 815 816 0
-801 -802 0
-801 -803 0
-801 -804 0
-801 -805 0
-801 -806 0
-801 -807 0
-801 -808 0
-801 -809 0
-801 -810 0
-801 -811 0
-801 -812 0
-801 -813 0
-801 -814 0
-801 -815 0
-801 -816 0
-802 -803 0
-802 -804 0
-802 -805 0
-802 -806 0
-802 -807 0
-802 -808 0
-802 -809 0
-802 -810 0
-802 -811 0
-802 -812 0
-802 -813 0
-802 -814 0
-802 -815 0
-802 -816 0
-803 -804 0
-803 -805 0
-803 -806 0
-803 -807 0
-803 -808 0
-803 -809 0
-803 -810 0
-803 -811 0
-803 -812 0
-803 -813 0
-803 -814 0
-803 -815 0
-803 -816 0
-804 -805 0
-804 -806 0
-804 -807 0
-804 -808 0
-804 -809 0
-804 -810 0
-804 -811 0
-804 -812 0
-804 -813 0
-804 -814 0
-804 -815 0
-804 -816 0
-805 -806 0
-805 -807 0
-805 -808 0
-805 -809 0
-805 -810 0
-805 -811 0
-805 -812 0
-805 -813 0
-805 -814 0
-805 -815 0
-805 -816 0
-806 -807 0
-806 -808 0
-806 -809 0
-806 -810 0
-806 -811 0
-806 -812 0
-806 -813 0
-806 -814 0
-806 -815 0
-806 -816 0
-807 -808 0
-807 -809 0
-807 -810 0
-807 -811 0
-807 -812 0
-807 -813 0
-807 -814 0
-807 -815 0
-807 -816 0
-808 -809 0
-808 -810 0
-808 -811 0
-808 -812 0
-808 -813 0
-808 -814 0
-808 -815 0
-808 -816 0
-809 -810 0
-809 -811 0
-809 -812 0
-809 -813 0
-809 -814 0
-809 -815 0
-809 -816 0
-810 -811 0
-810 -812 0
-810 -813 0
-810 -814 0
-810 -815 0
-810 -816 0
-811 -812 0
-811 -813 0
-811 -814 0
-811 -815 0
-811 -816 0
-812 -813 0
-812 -814 0
-812 -815 0
-812 -816 0
-813 -814 0
-813 -815 0
-813 -816 0
-814 -815 0
-814 -816 0
-815 -816 0
817 818 819 820 821 822 823 824 825 826 827 828 829 830 831 832 0
-817 -818 0
-817 -819 0
-817 -820 0
-817 -821 0
-817 -822 0
-817 -823 0
-817 -824 0
-817 -825 0
-817 -826 0
-817 -827 0
-817 -828 0
-817 -829 0
-817 -830 0
-817 -831 0
-817 -832 0
-818 -819 0
-818 -820 0
-818 -821 0
-818 -822 0
-818 -823 0
-818 -824 0
-818 -825 0
-818 -826 0
-818 -827 0
-818 -828 0
-818 -829 0
-818 -830 0
-818 -831 0
-818 -832 0
-819 -820 0
-819 -821 0
-819 -822 0
-819 -823 0
-819 -824 0
-819 -825 0
-819 -826 0
-819 -827 0
-819 -828 0
-819 -829 0
-819 -830 0
-819 -831 0
-819 -832 0
-820 -821 0
-820 -822 0
-820 -823 0
-820 -824 0
-820 -825 0
-820 -826 0
-820 -827 0
-820 -828 0
-820 -829 0
-820 -830 0
-820 -831 0
-820 -832 0
-821 -822 0
-821 -823 0
-821 -824 0
-821 -825 0
-821 -826 0
-821 -827 0
-821 -828 0
-821 -829 0
-821 -830 0
-821 -831 0
-821 -832 0
-822 -823 0
-822 -824 0
-822 -825 0
-822 -826 0
-822 -827 0
-822 -828 0
-822 -829 0
-822 -830 0
-822 -831 0
-822 -832 0
-823 -824 0
-823 -825 0
-823 -826 0
-823 -827 0
-823 -828 0
-823 -829 0
-823 -830 0
-823 -831 0
-823 -832 0
-824 -825 0
-824 -826 0
-824 -827 0
-824 -828 0
-824 -829 0
-824 -830 0
-824 -831 0
-824 -832 0
-825 -826 0
-825 -827 0
-825 -828 0
-825 -829 0
-825 -830 0
-825 -831 0
-825 -832 0
-826 -827 0
-826 -828 0
-826 -829 0
-826 -830 0
-826 -831 0
-826 -832 0
-827 -828 0
-827 -829 0
-827 -830 0
-827 -831 0
-827 -832 0
-828 -829 0
-828 -830 0
-828 -831 0
-828 -832 0
-829 -830 0
-829 -831 0
-829 -832 0
-830 -831 0
-830 -832 0
-831 -832 0
833 834 835 836 837 838 839 840 841 842 843 844 845 846 847 848 0
-833 -834 0
-833 -835 0
-833 -836 0
-833 -837 0
-833 -838 0
-833 -839 0
-833 -840 0
-833 -841 0
-833 -842 0
-833 -843 0
-833 -844 0
-833 -845 0
-833 -846 0
-833 -847 0
-833 -848 0
-834 -835 0
-834 -836 0
-834 -837 0
-834 -838 0
-834 -839 0
-834 -840 0
-834 -841 0
-834 -842 0
-834 -843 0
-834 -844 0
-834 -845 0
-834 -846 0
-834 -847 0
-834 -848 0
-835 -836 0
-835 -837 0
-835 -838 0
-835 -839 0
-835 -840 0
-835 -841 0
-835 -842 0
-835 -843 0
-835 -844 0
-835 -845 0
-835 -846 0
-835 -847 0
-835 -848 0
-836 -837 0
-836 -838 0
-836 -839 0
-836 -840 0
-836 -841 0
-836 -842 0
-836 -843 0
-836 -844 0
-836 -845 0
-836 -846 0
-836 -847 0
-836 -848 0
-837 -838 0
-837 -839 0
-837 -840 0
-837 -841 0
-837 -842 0
-837 -843 0
-837 -844 0
-837 -845 0
-837 -846 0
-837 -847 0
-837 -848 0
-838 -839 0
-838 -840 0
-838 -841 0
-838 -842 0
-838 -843 0
-838 -844 0
-838 -845 0
-838 -846 0
-838 -847 0
-838 -848 0
-839 -840 0
-839 -841 0
-839 -842 0
-839 -843 0
-839 -844 0
-839 -845 0
-839 -846 0
-839 -847 0
-839 -848 0
-840 -841 0
-840 -842 0
-840 -843 0
-840 -844 0
-840 -845 0
-840 -846 0
-840 -847 0
-840 -848 0
-841 -842 0
-841 -843 0
-841 -844 0
-841 -845 0
-841 -846 0
-841 -847 0
-841 -848 0
-842 -843 0
-842 -844 0
-842 -845 0
-842 -846 0
-842 -847 0
-842 -848 0
-843 -844 0
-843 -845 0
-843 -846 0
-843 -847 0
-843 -848 0
-844 -845 0
-844 -846 0
-844 -847 0
-844 -848 0
-845 -846 0
-845 -847 0
-845 -848 0
-846 -847 0
-846 -848 0
-847 -848 0
849 850 851 852 853 854 855 856 857 858 859 860 861 862 863 864 0
-849 -850 0
-849 -851 0
-849 -852 0
-849 -853 0
-849 -854 0
-849 -855 0
-849 -856 0
-849 -857 0
-849 -858 0
-849 -859 0
-849 -860 0
-849 -861 0
-849 -862 0
-849 -863 0
-849 -864 0
-850 -851 0
-850 -852 0
-850 -853 0
-850 -854 0
-850 -855 0
-850 -856 0
-850 -857 0
-850 -858 0
-850 -859 0
-850 -860 0
-850 -861 0
-850 -862 0
-850 -863 0
-850 -864 0
-851 -852 0
-851 -853 0
-851 -854 0
-851 -855 0
-851 -856 0
-851 -857 0
-851 -858 0
-851 -859 0
-851 -860 0
-851 -861 0
-851 -862 0
-851 -863 0
-851 -864 0
-852 -853 0
-852 -854 0
-852 -855 0
-852 -856 0
-852 -857 0
-852 -858 0
-852 -859 0
-852 -860 0
-852 -861 0
-852 -862 0
-852 -863 0
-852 -864 0
-853 -854 0
-853 -855 0
-853 -856 0
-853 -857 0
-853 -858 0
-853 -859 0
-853 -860 0
-853 -861 0
-853 -862 0
-853 -863 0
-853 -864 0
-854 -855 0
-854 -856 0
-854 -857 0
-854 -858 0
-854 -859 0
-854 -860 0
-854 -861 0
-854 -862 0
-854 -863 0
-854 -864 0
-855 -856 0
-855 -857 0
-855 -858 0
-855 -859 0
-855 -860 0
-855 -861 0
-855 -862 0
-855 -863 0
-855 -864 0
-856 -857 0
-856 -858 0
-856 -859 0
-856 -860 0
-856 -861 0
-856 -862 0
-856 -863 0
-856 -864 0
-857 -858 0
-857 -859 0
-857 -860 0
-857 -861 0
-857 -862 0
-857 -863 0
-857 -864 0
-858 -859 0
-858 -860 0
-858 -861 0
-858 -862 0
-858 -863 0
-858 -864 0
-859 -860 0
-859 -861 0
-859 -862 0
-859 -863 0
-859 -864 0
-860 -861 0
-860 -862 0
-860 -863 0
-860 -864 0
-861 -862 0
-861 -863 0
-861 -864 0
-862 -863 0
-862 -864 0
-863 -864 0
865 866 867 868 869 870 871 872 873 874 875 876 877 878 879 880 0
-865 -866 0
-865 -867 0
-865 -868 0
-865 -869 0
-865 -870 0
-865 -871 0
-865 -872 0
-865 -873 0
-865 -874 0
-865 -875 0
-865 -876 0
-865 -877 0
-865 -878 0
-865 -879 0
-865 -880 0
-866 -867 0
-866 -868 0
-866 -869 0
-866 -870 0
-866 -871 0
-866 -872 0
-866 -873 0
-866 -874 0
-866 -875 0
-866 -876 0
-866 -877 0
-866 -878 0
-866 -879 0
-866 -880 0
-867 -868 0
-867 -869 0
-867 -870 0
-867 -871 0
-867 -872 0
-867 -873 0
-867 -874 0
-867 -875 0
-867 -876 0
-867 -877 0
-867 -878 0
-867 -879 0
-867 -880 0
-868 -869 0
-868 -870 0
-868 -871 0
-868 -872 0
-868 -873 0
-868 -874 0
-868 -875 0
-868 -876 0
-868 -877 0
-868 -878 0
-868 -879 0
-868 -880 0
-869 -870 0
-869 -871 0
-869 -872 0
-869 -873 0
-869 -874 0
-869 -875 0
-869 -876 0
-869 -877 0
-869 -878 0
-869 -879 0
-869 -880 0
-870 -871 0
-870 -872 0
-870 -873 0
-870 -874 0
-870 -875 0
-870 -876 0
-870 -877 0
-870 -878 0
-870 -879 0
-870 -880 0
-871 -872 0
-871 -873 0
-871 -874 0
-871 -875 0
-871 -876 0
-871 -877 0
-871 -878 0
-871 -879 0
-871 -880 0
-872 -873 0
-872 -874 0
-872 -875 0
-872 -876 0
-872 -877 0
-872 -878 0
-872 -879 0
-872 -880 0
-873 -874 0
-873 -875 0
-873 -876 0
-873 -877 0
-873 -878 0
-873 -879 0
-873 -880 0
-874 -875 0
-874 -876 0
-874 -877 0
-874 -878 0
-874 -879 0
-874 -880 0
-875 -876 0
-875 -877 0
-875 -878 0
-875 -879 0
-875 -880 0
-876 -877 0
-876 -878 0
-876 -879 0
-876 -880 0
-877 -878 0
-877 -879 0
-877 -880 0
-878 -879 0
-878 -880 0
-879 -880 0
881 882 883 884 885 886 887 888 889 890 891 892 893 894 895 896 0
-881 -882 0
-881 -883 0
-881 -884 0
-881 -885 0
-881 -886 0
-881 -887 0
-881 -888 0
-881 -889 0
-881 -890 0
-881 -891 0
-881 -892 0
-881 -893 0
-881 -894 0
-881 -895 0
-881 -896 0
-882 -883 0
-882 -884 0
-882 -885 0
-882 -886 0
-882 -887 0
-882 -888 0
-882 -889 0
-882 -890 0
-882 -891 0
-882 -892 0
-882 -893 0
-882 -894 0
-882 -895 0
-882 -896 0
-883 -884 0
-883 -885 0
-883 -886 0
-883 -887 0
-883 -888 0
-883 -889 0
-883 -890 0
-883 -891 0
-883 -892 0
-883 -893 0
-883 -894 0
-883 -895 0
-883 -896 0
-884 -885 0
-884 -886 0
-884 -887 0
-884 -888 0
-884 -889 0
-884 -890 0
-884 -891 0
-884 -892 0
-884 -893 0
-884 -894 0
-884 -895 0
-884 -896 0
-885 -886 0
-885 -887 0
-885 -888 0
-885 -889 0
-885 -890 0
-885 -891 0
-885 -892 0
-885 -893 0
-885 -894 0
-885 -895 0
-885 -896 0
-886 -887 0
-886 -888 0
-886 -889 0
-886 -890 0
-886 -891 0
-886 -892 0
-886 -893 0
-886 -894 0
-886 -895 0
-886 -896 0
-887 -888 0
-887 -889 0
-887 -890 0
-887 -891 0
-887 -892 0
-887 -893 0
-887 -894 0
-887 -895 0
-887 -896 0
-888 -889 0
-888 -890 0
-888 -891 0
-888 -892 0
-888 -893 0
-888 -894 0
-888 -895 0
-888 -896 0
-889 -890 0
-889 -891 0
-889 -892 0
-889 -893 0
-889 -894 0
-889 -895 0
-889 -896 0
-890 -891 0
-890 -892 0
-890 -893 0
-890 -894 0
-890 -895 0
-890 -896 0
-891 -892 0
-891 -893 0
-891 -894 0
-891 -895 0
-891 -896 0
-892 -893 0
-892 -894 0
-892 -895 0
-892 -896 0
-893 -894 0
-893 -895 0
-893 -896 0
-894 -895 0
-894 -896 0
-895 -896 0
897 898 899 900 901 902 903 904 905 906 907 908 909 910 911 912 0
-897 -898 0
-897 -899 0
-897 -900 0
-897 -901 0
-897 -902 0
-897 -903 0
-897 -904 0
-897 -905 0
-897 -906 0
-897 -907 0
-897 -908 0
-897 -909 0
-897 -910 0
-897 -911 0
-897 -912 0
-898 -899 0
-898 -900 0
-898 -901 0
-898 -902 0
-898 -903 0
-898 -904 0
-898 -905 0
-898 -906 0
-898 -907 0
-898 -908 0
-898 -909 0
-898 -910 0
-898 -911 0
-898 -912 0
-899 -900 0
-899 -901 0
-899 -902 0
-899 -903 0
-899 -904 0
-899 -905 0
-899 -906 0
-899 -907 0
-899 -908 0
-899 -909 0
-899 -910 0
-899 -911 0
-899 -912 0
-900 -901 0
-900 -902 0
-900 -903 0
-900 -904 0
-900 -905 0
-900 -906 0
-900 -907 0
-900 -908 0
-900 -909 0
-900 -910 0
-900 -911 0
-900 -912 0
-901 -902 0
-901 -903 0
-901 -904 0
-901 -905 0
-901 -906 0
-901 -907 0
-901 -908 0
-901 -909 0
-901 -910 0
-901 -911 0
-901 -912 0
-902 -903 0
-902 -904 0
-902 -905 0
-902 -906 0
-902 -907 0
-902 -908 0
-902 -909 0
-902 -910 0
-902 -911 0
-902 -912 0
-903 -904 0
-903 -905 0
-903 -906 0
-903 -907 0
-903 -908 0
-903 -909 0
-903 -910 0
-903 -911 0
-903 -912 0
-904 -905 0
-904 -906 0
-904 -907 0
-904 -908 0
-904 -909 0
-904 -910 0
-904 -911 0
-904 -912 0
-905 -906 0
-905 -907 0
-905 -908 0
-905 -909 0
-905 -910 0
-905 -911 0
-905 -912 0
-906 -907 0
-906 -908 0
-906 -909 0
-906 -910 0
-906 -911 0
-906 -912 0
-907 -908 0
-907 -909 0
-907 -910 0
-907 -911 0
-907 -912 0
-908 -909 0
-908 -910 0
-908 -911 0
-908 -912 0
-909 -910 0
-909 -911 0
-909 -912 0
-910 -911 0
-910 -912 0
-911 -912 0
913 914 915 916 917 918 919 920 921 922 923 924 925 926 927 928 0
-913 -914 0
-913 -915 0
-913 -916 0
-913 -917 0
-913 -918 0
-913 -919 0
-913 -920 0
-913 -921 0
-913 -922 0
-913 -923 0
-913 -924 0
-913 -925 0
-913 -926 0
-913 -927 0
-913 -928 0
-914 -915 0
-914 -916 0
-914 -917 0
-914 -918 0
-914 -919 0
-914 -920 0
-914 -921 0
-914 -922 0
-914 -923 0
-914 -924 0
-914 -925 0
-914 -926 0
-914 -927 0
-914 -928 0
-915 -916 0
-915 -917 0
-915 -918 0
-915 -919 0
-915 -920 0
-915 -921 0
-915 -922 0
-915 -923 0
-915 -924 0
-915 -925 0
-915 -926 0
-915 -927 0
-915 -928 0
-916 -917 0
-916 -918 0
-916 -919 0
-916 -920 0
-916 -921 0
-916 -922 0
-916 -923 0
-916 -924 0
-916 -925 0
-916 -926 0
-916 -927 0
-916 -928 0
-917 -918 0
-917 -919 0
-917 -920 0
-917 -921 0
-917 -922 0
-917 -923 0
-917 -924 0
-917 -925 0
-917 -926 0
-917 -927 0
-917 -928 0
-918 -919 0
-918 -920 0
-918 -921 0
-918 -922 0
-918 -923 0
-918 -924 0
-918 -925 0
-918 -926 0
-918 -927 0
-918 -928 0
-919 -920 0
-919 -921 0
-919 -922 0
-919 -923 0
-919 -924 0
-919 -925 0
-919 -926 0
-919 -927 0
-919 -928 0
-920 -921 0
-920 -922 0
-920 -923 0
-920 -924 0
-920 -925 0
-920 -926 0
-920 -927 0
-920 -928 0
-921 -922 0
-921 -923 0
-921 -924 0
-921 -925 0
-921 -926 0
-921 -927 0
-921 -928 0
-922 -923 0
-922 -924 0
-922 -925 0
-922 -926 0
-922 -927 0
-922 -928 0
-923 -924 0
-923 -925 0
-923 -926 0
-923 -927 0
-923 -928 0
-924 -925 0
-924 -926 0
-924 -927 0
-924 -928 0
-925 -926 0
-925 -927 0
-925 -928 0
-926 -927 0
-926 -928 0
-927 -928 0
929 930 931 932 933 934 935 936 937 938 939 940 941 942 943 944 0
-929 -930 0
-929 -931 0
-929 -932 0
-929 -933 0
-929 -934 0
-929 -935 0
-929 -936 0
-929 -937 0
-929 -938 0
-929 -939 0
-929 -940 0
-929 -941 0
-929 -942 0
-929 -943 0
-929 -944 0
-930 -931 0
-930 -932 0
-930 -933 0
-930 -934 0
-930 -935 0
-930 -936 0
-930 -937 0
-930 -938 0
-930 -939 0
-930 -940 0
-930 -941 0
-930 -942 0
-930 -943 0
-930 -944 0
-931 -932 0
-931 -933 0
-931 -934 0
-931 -935 0
-931 -936 0
-931 -937 0
-931 -938 0
-931 -939 0
-931 -940 0
-931 -941 0
-931 -942 0
-931 -943 0
-931 -944 0
-932 -933 0
-932 -934 0
-932 -935 0
-932 -936 0
-932 -937 0
-932 -938 0
-932 -939 0
-932 -940 0
-932 -941 0
-932 -942 0
-932 -943 0
-932 -944 0
-933 -934 0
-933 -935 0
-933 -936 0
-933 -937 0
-933 -938 0
-933 -939 0
-933 -940 0
-933 -941 0
-933 -942 0
-933 -943 0
-933 -944 0
-934 -935 0
-934 -936 0
-934 -937 0
-934 -938 0
-934 -939 0
-934 -940 0
-934 -941 0
-934 -942 0
-934 -943 0
-934 -944 0
-935 -936 0
-935 -937 0
-935 -938 0
-935 -939 0
-935 -940 0
-935 -941 0
-935 -942 0
-935 -943 0
-935 -944 0
-936 -937 0
-936 -938 0
-936 -939 0
-936 -940 0
-936 -941 0
-936 -942 0
-936 -943 0
-936 -944 0
-937 -938 0
-937 -939 0
-937 -940 0
-937 -941 0
-937 -942 0
-937 -943 0
-937 -944 0
-938 -939 0
-938 -940 0
-938 -941 0
-938 -942 0
-938 -943 0
-938 -944 0
-939 -940 0
-939 -941 0
-939 -942 0
-939 -943 0
-939 -944 0
-940 -941 0
-940 -942 0
-940 -943 0
-940 -944 0
-941 -942 0
-941 -943 0
-941 -944 0
-942 -943 0
-942 -944 0
-943 -944 0
945 946 947 948 949 950 951 952 953 954 955 956 957 958 959 960 0
-945 -946 0
-945 -947 0
-945 -948 0
-945 -949 0
-945 -950 0
-945 -951 0
-945 -952 0
-945 -953 0
-945 -954 0
-945 -955 0
-945 -956 0
-945 -957 0
-945 -958 0
-945 -959 0
-945 -960 0
-946 -947 0
-946 -948 0
-946 -949 0
-946 -950 0
-946 -951 0
-946 -952 0
-946 -953 0
-946 -954 0
-946 -955 0
-946 -956 0
-946 -957 0
-946 -958 0
-946 -959 0
-946 -960 0
-947 -948 0
-947 -949 0
-947 -950 0
-947 -951 0
-947 -952 0
-947 -953 0
-947 -954 0
-947 -955 0
-947 -956 0
-947 -957 0
-947 -958 0
-947 -959 0
-947 -960 0
-948 -949 0
-948 -950 0
-948 -951 0
-948 -952 0
-948 -953 0
-948 -954 0
-948 -955 0
-948 -956 0
-948 -957 0
-948 -958 0
-948 -959 0
-948 -960 0
-949 -950 0
-949 -951 0
-949 -952 0
-949 -953 0
-949 -954 0
-949 -955 0
-949 -956 0
-949 -957 0
-949 -958 0
-949 -959 0
-949 -960 0
-950 -951 0
-950 -952 0
-950 -953 0
-950 -954 0
-950 -955 0
-950 -956 0
-950 -957 0
-950 -958 0
-950 -959 0
-950 -960 0
-951 -952 0
-951 -953 0
-951 -954 0
-951 -955 0
-951 -956 0
-951 -957 0
-951 -958 0
-951 -959 0
-951 -960 0
-952 -953 0
-952 -954 0
-952 -955 0
-952 -956 0
-952 -957 0
-952 -958 0
-952 -959 0
-952 -960 0
-953 -954 0
-953 -955 0
-953 -956 0
-953 -957 0
-953 -958 0
-953 -959 0
-953 -960 0
-954 -955 0
-954 -956 0
-954 -957 0
-954 -958 0
-954 -959 0
-954 -960 0
-955 -956 0
-955 -957 0
-955 -958 0
-955 -959 0
-955 -960 0
-956 -957 0
-956 -958 0
-956 -959 0
-956 -960 0
-957 -958 0
-957 -959 0
-957 -960 0
-958 -959 0
-958 -960 0
-959 -960 0
961 962 963 964 965 966 967 968 969 970 971 972 973 974 975 976 0
-961 -962 0
-961 -963 0
-961 -964 0
-961 -965 0
-961 -966 0
-961 -967 0
-961 -968 0
-961 -969 0
-961 -970 0
-961 -971 0
-961 -972 0
-961 -973 0
-961 -974 0
-961 -975 0
-961 -976 0
-962 -963 0
-962 -964 0
-962 -965 0
-962 -966 0
-962 -967 0
-962 -968 0
-962 -969 0
-962 -970 0
-962 -971 0
-962 -972 0
-962 -973 0
-962 -974 0
-962 -975 0
-962 -976 0
-963 -964 0
-963 -965 0
-963 -966 0
-963 -967 0
-963 -968 0
-963 -969 0
-963 -970 0
-963 -971 0
-963 -972 0
-963 -973 0
-963 -974 0
-963 -975 0
-963 -976 0
-964 -965 0
-964 -966 0
-964 -967 0
-964 -968 0
-964 -969 0
-964 -970 0
-964 -971 0
-964 -972 0
-964 -973 0
-964 -974 0
-964 -975 0
-964 -976 0
-965 -966 0
-965 -967 0
-965 -968 0
-965 -969 0
-965 -970 0
-965 -971 0
-965 -972 0
-965 -973 0
-965 -974 0
-965 -975 0
-965 -976 0
-966 -967 0
-966 -968 0
-966 -969 0
-966 -970 0
-966 -971 0
-966 -972 0
-966 -973 0
-966 -974 0
-966 -975 0
-966 -976 0
-967 -968 0
-967 -969 0
-967 -970 0
-967 -971 0
-967 -972 0
-967 -973 0
-967 -974 0
-967 -975 0
-967 -976 0
-968 -969 0
-968 -970 0
-968 -971 0
-968 -972 0
-968 -973 0
-968 -974 0
-968 -975 0
-968 -976 0
-969 -970 0
-969 -971 0
-969 -972 0
-969 -973 0
-969 -974 0
-969 -975 0
-969 -976 0
-970 -971 0
-970 -972 0
-970 -973 0
-970 -974 0
-970 -975 0
-970 -976 0
-971 -972 0
-971 -973 0
-971 -974 0
-971 -975 0
-971 -976 0
-972 -973 0
-972 -974 0
-972 -975 0
-972 -976 0
-973 -974 0
-973 -975 0
-973 -976 0
-974 -975 0
-974 -976 0
-975 -976 0
977 978 979 980 981 982 983 984 985 986 987 988 989 990 991 992 0
-977 -978 0
-977 -979 0
-977 -980 0
-977 -981 0
-977 -982 0
-977 -983 0
-977 -984 0
-977 -985 0
-977 -986 0
-977 -987 0
-977 -988 0
-977 -989 0
-977 -990 0
-977 -991 0
-977 -992 0
-978 -979 0
-978 -980 0
-978 -981 0
-978 -982 0
-978 -983 0
-978 -984 0
-978 -985 0
-978 -986 0
-978 -987 0
-978 -988 0
-978 -989 0
-978 -990 0
-978 -991 0
-978 -992 0
-979 -980 0
-979 -981 0
-979 -982 0
-979 -983 0
-979 -984 0
-979 -985 0
-979 -986 0
-979 -987 0
-979 -988 0
-979 -989 0
-979 -990 0
-979 -991 0
-979 -992 0
-980 -981 0
-980 -982 0
-980 -983 0
-980 -984 0
-980 -985 0
-980 -986 0
-980 -987 0
-980 -988 0
-980 -989 0
-980 -990 0
-980 -991 0
-980 -992 0
-981 -982 0
-981 -983 0
-981 -984 0
-981 -985 0
-981 -986 0
-981 -987 0
-981 -988 0
-981 -989 0
-981 -990 0
-981 -991 0
-981 -992 0
-982 -983 0
-982 -984 0
-982 -985 0
-982 -986 0
-982 -987 0
-982 -988 0
-982 -989 0
-982 -990 0
-982 -991 0
-982 -992 0
-983 -984 0
-983 -985 0
-983 -986 0
-983 -987 0
-983 -988 0
-983 -989 0
-983 -990 0
-983 -991 0
-983 -992 0
-984 -985 0
-984 -986 0
-984 -987 0
-984 -988 0
-984 -989 0
-984 -990 0
-984 -991 0
-984 -992 0
-985 -986 0
-985 -987 0
-985 -988 0
-985 -989 0
-985 -990 0
-985 -991 0
-985 -992 0
-986 -987 0
-986 -988 0
-986 -989 0
-986 -990 0
-986 -991 0
-986 -992 0
-987 -988 0
-987 -989 0
-987 -990 0
-987 -991 0
-987 -992 0
-988 -989 0
-988 -990 0
-988 -991 0
-988 -992 0
-989 -990 0
-989 -991 0
-989 -992 0
-990 -991 0
-990 -992 0
-991 -992 0
993 994 995 996 997 998 999 1000 1001 1002 1003 1004 1005 1006 1007 1008 0
-993 -994 0
-993 -995 0
-993 -996 0
-993 -997 0
-993 -998 0
-993 -999 0
-993 -1000 0
-993 -1001 0
-993 -1002 0
-993 -1003 0
-993 -1004 0
-993 -1005 0
-993 -1006 0
-993 -1007 0
-993 -1008 0
-994 -995 0
-994 -996 0
-994 -997 0
-994 -998 0
-994 -999 0
-994 -1000 0
-994 -1001 0
-994 -1002 0
-994 -1003 0
-994 -1004 0
-994 -1005 0
-994 -1006 0
-994 -1007 0
-994 -1008 0
-995 -996 0
-995 -997 0
-995 -998 0
-995 -999 0
-995 -1000 0
-995 -1001 0
-995 -1002 0
-995 -1003 0
-995 -1004 0
-995 -1005 0
-995 -1006 0
-995 -1007 0
-995 -1008 0
-996 -997 0
-996 -998 0
-996 -999 0
-996 -1000 0
-996 -1001 0
-996 -1002 0
-996 -1003 0
-996 -1004 0
-996 -1005 0
-996 -1006 0
-996 -1007 0
-996 -1008 0
-997 -998 0
-997 -999 0
-997 -1000 0
-997 -1001 0
-997 -1002 0
-997 -1003 0
-997 -1004 0
-997 -1005 0
-997 -1006 0
-997 -1007 0
-997 -1008 0
-998 -999 0
-998 -1000 0
-998 -1001 0
-998 -1002 0
-998 -1003 0
-998 -1004 0
-998 -1005 0
-998 -1006 0
-998 -1007 0
-998 -1008 0
-999 -1000 0
-999 -1001 0
-999 -1002 0
-999 -1003 0
-999 -1004 0
-999 -1005 0
-999 -1006 0
-999 -1007 0
-999 -1008 0
-1000 -1001 0
-1000 -1002 0
-1000 -1003 0
-1000 -1004 0
-1000 -1005 0
-1000 -1006 0
-1000 -1007 0
-1000 -1008 0
-1001 -1002 0
-1001 -1003 0
-1001 -1004 0
-1001 -1005 0
-1001 -1006 0
-1001 -1007 0
-1001 -1008 0
-1002 -1003 0
-1002 -1004 0
-1002 -1005 0
-1002 -1006 0
-1002 -1007 0
-1002 -1008 0
-1003 -1004 0
-1003 -1005 0
-1003 -1006 0
-1003 -1007 0
-1003 -1008 0
-1004 -1005 0
-1004 -1006 0
-1004 -1007 0
-1004 -1008 0
-1005 -1006 0
-1005 -1007 0
-1005 -1008 0
-1006 -1007 0
-1006 -1008 0
-1007 -1008 0
1009 1010 1011 1012 1013 1014 1015 1016 1017 1018 1019 1020 1021 1022 1023 1024 0
-1009 -1010 0
-1009 -1011 0
-1009 -1012 0
-1009 -1013 0
-1009 -1014 0
-1009 -1015 0
-1009 -1016 0
-1009 -1017 0
-1009 -1018 0
-1009 -1019 0
-1009 -1020 0
-1009 -1021 0
-1009 -1022 0
-1009 -1023 0
-1009 -1024 0
-1010 -1011 0
-1010 -1012 0
-1010 -1013 0
-1010 -1014 0
-1010 -1015 0
-1010 -1016 0
-1010 -1017 0
-1010 -1018 0
-1010 -1019 0
-1010 -1020 0
-1010 -1021 0
-1010 -1022 0
-1010 -1023 0
-1010 -1024 0
-1011 -1012 0
-1011 -1013 0
-1011 -1014 0
-1011 -1015 0
-1011 -1016 0
-1011 -1017 0
-1011 -1018 0
-1011 -1019 0
-1011 -1020 0
-1011 -1021 0
-1011 -1022 0
-1011 -1023 0
-1011 -1024 0
-1012 -1013 0
-1012 -1014 0
-1012 -1015 0
-1012 -1016 0
-1012 -1017 0
-1012 -1018 0
-1012 -1019 0
-1012 -1020 0
-1012 -1021 0
-1012 -1022 0
-1012 -1023 0
-1012 -1024 0
-1013 -1014 0
-1013 -1015 0
-1013 -1016 0
-1013 -1017 0
-1013 -1018 0
-1013 -1019 0
-1013 -1020 0
-1013 -1021 0
-1013 -1022 0
-1013 -1023 0
-1013 -1024 0
-1014 -1015 0
-1014 -1016 0
-1014 -1017 0
-1014 -1018 0
-1014 -1019 0
-1014 -1020 0
-1014 -1021 0
-1014 -1022 0
-1014 -1023 0
-1014 -1024 0
-1015 -1016 0
-1015 -1017 0
-1015 -1018 0
-1015 -1019 0
-1015 -1020 0
-1015 -1021 0
-1015 -1022 0
-1015 -1023 0
-1015 -1024 0
-1016 -1017 0
-1016 -1018 0
-1016 -1019 0
-1016 -1020 0
-1016 -1021 0
-1016 -1022 0
-1016 -1023 0
-1016 -1024 0
-1017 -1018 0
-1017 -1019 0
-1017 -1020 0
-1017 -1021 0
-1017 -1022 0
-1017 -1023 0
-1017 -1024 0
-1018 -1019 0
-1018 -1020 0
-1018 -1021 0
-1018 -1022 0
-1018 -1023 0
-1018 -1024 0
-1019 -1020 0
-1019 -1021 0
-1019 -1022 0
-1019 -1023 0
-1019 -1024 0
-1020 -1021 0
-1020 -1022 0
-1020 -1023 0
-1020 -1024 0
-1021 -1022 0
-1021 -1023 0
-1021 -1024 0
-1022 -1023 0
-1022 -1024 0
-1023 -1024 0
1025 1026 1027 1028 1029 1030 1031 1032 1033 1034 1035 1036 1037 1038 1039 1040 0
-1025 -1026 0
-1025 -1027 0
-1025 -1028 0
-1025 -1029 0
-1025 -1030 0
-1025 -1031 0
-1025 -1032 0
-1025 -1033 0
-1025 -1034 0
-1025 -1035 0
-1025 -1036 0
-1025 -1037 0
-1025 -1038 0
-1025 -1039 0
-1025 -1040 0
-1026 -1027 0
-1026 -1028 0
-1026 -1029 0
-1026 -1030 0
-1026 -1031 0
-1026 -1032 0
-1026 -1033 0
-1026 -1034 0
-1026 -1035 0
-1026 -1036 0
-1026 -1037 0
-1026 -1038 0
-1026 -1039 0
-1026 -1040 0
-1027 -1028 0
-1027 -1029 0
-1027 -1030 0
-1027 -1031 0
-1027 -1032 0
-1027 -1033 0
-1027 -1034 0
-1027 -1035 0
-1027 -1036 0
-1027 -1037 0
-1027 -1038 0
-1027 -1039 0
-1027 -1040 0
-1028 -1029 0
-1028 -1030 0
-1028 -1031 0
-1028 -1032 0
-1028 -1033 0
-1028 -1034 0
-1028 -1035 0
-1028 -1036 0
-1028 -1037 0
-1028 -1038 0
-1028 -1039 0
-1028 -1040 0
-1029 -1030 0
-1029 -1031 0
-1029 -1032 0
-1029 -1033 0
-1029 -1034 0
-1029 -1035 0
-1029 -1036 0
-1029 -1037 0
-1029 -1038 0
-1029 -1039 0
-1029 -1040 0
-1030 -1031 0
-1030 -1032 0
-1030 -1033 0
-1030 -1034 0
-1030 -1035 0
-1030 -1036 0
-1030 -1037 0
-1030 -1038 0
-1030 -1039 0
-1030 -1040 0
-1031 -1032 0
-1031 -1033 0
-1031 -1034 0
-1031 -1035 0
-1031 -1036 0
-1031 -1037 0
-1031 -1038 0
-1031 -1039 0
-1031 -1040 0
-1032 -1033 0
-1032 -1034 0
-1032 -1035 0
-1032 -1036 0
-1032 -1037 0
-1032 -1038 0
-1032 -1039 0
-1032 -1040 0
-1033 -1034 0
-1033 -1035 0
-1033 -1036 0
-1033 -1037 0
-1033 -1038 0
-1033 -1039 0
-1033 -1040 0
-1034 -1035 0
-1034 -1036 0
-1034 -1037 0
-1034 -1038 0
-1034 -1039 0
-1034 -1040 0
-1035 -1036 0
-1035 -1037 0
-1035 -1038 0
-1035 -1039 0
-1035 -1040 0
-1036 -1037 0
-1036 -1038 0
-1036 -1039 0
-1036 -1040 0
-1037 -1038 0
-1037 -1039 0
-1037 -1040 0
-1038 -1039 0
-1038 -1040 0
-1039 -1040 0
1041 1042 1043 1044 1045 1046 1047 1048 1049 1050 1051 1052 1053 1054 1055 1056 0
-1041 -1042 0
-1041 -1043 0
-1041 -1044 0
-1041 -1045 0
-1041 -1046 0
-1041 -1047 0
-1041 -1048 0
-1041 -1049 0
-1041 -1050 0
-1041 -1051 0
-1041 -1052 0
-1041 -1053 0
-1041 -1054 0
-1041 -1055 0
-1041 -1056 0
-1042 -1043 0
-1042 -1044 0
-1042 -1045 0
-1042 -1046 0
-1042 -1047 0
-1042 -1048 0
-1042 -1049 0
-1042 -1050 0
-1042 -1051 0
-1042 -1052 0
-1042 -1053 0
-1042 -1054 0
-1042 -1055 0
-1042 -1056 0
-1043 -1044 0
-1043 -1045 0
-1043 -1046 0
-1043 -1047 0
-1043 -1048 0
-1043 -1049 0
-1043 -1050 0
-1043 -1051 0
-1043 -1052 0
-1043 -1053 0
-1043 -1054 0
-1043 -1055 0
-1043 -1056 0
-1044 -1045 0
-1044 -1046 0
-1044 -1047 0
-1044 -1048 0
-1044 -1049 0
-1044 -1050 0
-1044 -1051 0
-1044 -1052 0
-1044 -1053 0
-1044 -1054 0
-1044 -1055 0
-1044 -1056 0
-1045 -1046 0
-1045 -1047 0
-1045 -1048 0
-1045 -1049 0
-1045 -1050 0
-1045 -1051 0
-1045 -1052 0
-1045 -1053 0
-1045 -1054 0
-1045 -1055 0
-1045 -1056 0
-1046 -1047 0
-1046 -1048 0
-1046 -1049 0
-1046 -1050 0
-1046 -1051 0
-1046 -1052 0
-1046 -1053 0
-1046 -1054 0
-1046 -1055 0
-1046 -1056 0
-1047 -1048 0
-1047 -1049 0
-1047 -1050 0
-1047 -1051 0
-1047 -1052 0
-1047 -1053 0
-1047 -1054 0
-1047 -1055 0
-1047 -1056 0
-1048 -1049 0
-1048 -1050 0
-1048 -1051 0
-1048 -1052 0
-1048 -1053 0
-1048 -1054 0
-1048 -1055 0
-1048 -1056 0
-1049 -1050 0
-1049 -1051 0
-1049 -1052 0
-1049 -1053 0
-1049 -1054 0
-1049 -1055 0
-1049 -1056 0
-1050 -1051 0
-1050 -1052 0
-1050 -1053 0
-1050 -1054 0
-1050 -1055 0
-1050 -1056 0
-1051 -1052 0
-1051 -1053 0
-1051 -1054 0
-1051 -1055 0
-1051 -1056 0
-1052 -1053 0
-1052 -1054 0
-1052 -1055 0
-1052 -1056 0
-1053 -1054 0
-1053 -1055 0
-1053 -1056 0
-1054 -1055 0
-1054 -1056 0
-1055 -1056 0
1057 1058 1059 1060 1061 1062 1063 1064 1065 1066 1067 1068 1069 1070 1071 1072 0
-1057 -1058 0
-1057 -1059 0
-1057 -1060 0
-1057 -1061 0
-1057 -1062 0
-1057 -1063 0
-1057 -1064 0
-1057 -1065 0
-1057 -1066 0
-1057 -1067 0
-1057 -1068 0
-1057 -1069 0
-1057 -1070 0
-1057 -1071 0
-1057 -1072 0
-1058 -1059 0
-1058 -1060 0
-1058 -1061 0
-1058 -1062 0
-1058 -1063 0
-1058 -1064 0
-1058 -1065 0
-1058 -1066 0
-1058 -1067 0
-1058 -1068 0
-1058 -1069 0
-1058 -1070 0
-1058 -1071 0
-1058 -1072 0
-1059 -1060 0
-1059 -1061 0
-1059 -1062 0
-1059 -1063 0
-1059 -1064 0
-1059 -1065 0
-1059 -1066 0
-1059 -1067 0
-1059 -1068 0
-1059 -1069 0
-1059 -1070 0
-1059 -1071 0
-1059 -1072 0
-1060 -1061 0
-1060 -1062 0
-1060 -1063 0
-1060 -1064 0
-1060 -1065 0
-1060 -1066 0
-1060 -1067 0
-1060 -1068 0
-1060 -1069 0
-1060 -1070 0
-1060 -1071 0
-1060 -1072 0
-1061 -1062 0
-1061 -1063 0
-1061 -1064 0
-1061 -1065 0
-1061 -1066 0
-1061 -1067 0
-1061 -1068 0
-1061 -1069 0
-1061 -1070 0
-1061 -1071 0
-1061 -1072 0
-1062 -1063 0
-1062 -1064 0
-1062 -1065 0
-1062 -1066 0
-1062 -1067 0
-1062 -1068 0
-1062 -1069 0
-1062 -1070 0
-1062 -1071 0
-1062 -1072 0
-1063 -1064 0
-1063 -1065 0
-1063 -1066 0
-1063 -1067 0
-1063 -1068 0
-1063 -1069 0
-1063 -1070 0
-1063 -1071 0
-1063 -1072 0
-1064 -1065 0
-1064 -1066 0
-1064 -1067 0
-1064 -1068 0
-1064 -1069 0
-1064 -1070 0
-1064 -1071 0
-1064 -1072 0
-1065 -1066 0
-1065 -1067 0
-1065 -1068 0
-1065 -1069 0
-1065 -1070 0
-1065 -1071 0
-1065 -1072 0
-1066 -1067 0
-1066 -1068 0
-1066 -1069 0
-1066 -1070 0
-1066 -1071 0
-1066 -1072 0
-1067 -1068 0
-1067 -1069 0
-1067 -1070 0
-1067 -1071 0
-1067 -1072 0
-1068 -1069 0
-1068 -1070 0
-1068 -1071 0
-1068 -1072 0
-1069 -1070 0
-1069 -1071 0
-1069 -1072 0
-1070 -1071 0
-1070 -1072 0
-1071 -1072 0
1073 1074 1075 1076 1077 1078 1079 1080 1081 1082 1083 1084 1085 1086 1087 1088 0
-1073 -1074 0
-1073 -1075 0
-1073 -1076 0
-1073 -1077 0
-1073 -1078 0
-1073 -1079 0
-1073 -1080 0
-1073 -1081 0
-1073 -1082 0
-1073 -1083 0
-1073 -1084 0
-1073 -1085 0
-1073 -1086 0
-1073 -1087 0
-1073 -1088 0
-1074 -1075 0
-1074 -1076 0
-1074 -1077 0
-1074 -1078 0
-1074 -1079 0
-1074 -1080 0
-1074 -1081 0
-1074 -1082 0
-1074 -1083 0
-1074 -1084 0
-1074 -1085 0
-1074 -1086 0
-1074 -1087 0
-1074 -1088 0
-1075 -1076 0
-1075 -1077 0
-1075 -1078 0
-1075 -1079 0
-1075 -1080 0
-1075 -1081 0
-1075 -1082 0
-1075 -1083 0
-1075 -1084 0
-1075 -1085 0
-1075 -1086 0
-1075 -1087 0
-1075 -1088 0
-1076 -1077 0
-1076 -1078 0
-1076 -1079 0
-1076 -1080 0
-1076 -1081 0
-1076 -1082 0
-1076 -1083 0
-1076 -1084 0
-1076 -1085 0
-1076 -1086 0
-1076 -1087 0
-1076 -1088 0
-1077 -1078 0
-1077 -1079 0
-1077 -1080 0
-1077 -1081 0
-1077 -1082 0
-1077 -1083 0
-1077 -1084 0
-1077 -1085 0
-1077 -1086 0
-1077 -1087 0
-1077 -1088 0
-1078 -1079 0
-1078 -1080 0
-1078 -1081 0
-1078 -1082 0
-1078 -1083 0
-1078 -1084 0
-1078 -1085 0
-1078 -1086 0
-1078 -1087 0
-1078 -1088 0
-1079 -1080 0
-1079 -1081 0
-1079 -1082 0
-1079 -1083 0
-1079 -1084 0
-1079 -1085 0
-1079 -1086 0
-1079 -1087 0
-1079 -1088 0
-1080 -1081 0
-1080 -1082 0
-1080 -1083 0
-1080 -1084 0
-1080 -1085 0
-1080 -1086 0
-1080 -1087 0
-1080 -1088 0
-1081 -1082 0
-1081 -1083 0
-1081 -1084 0
-1081 -1085 0
-1081 -1086 0
-1081 -1087 0
-1081 -1088 0
-1082 -1083 0
-1082 -1084 0
-1082 -1085 0
-1082 -1086 0
-1082 -1087 0
-1082 -1088 0
-1083 -1084 0
-1083 -1085 0
-1083 -1086 0
-1083 -1087 0
-1083 -1088 0
-1084 -1085 0
-1084 -1086 0
-1084 -1087 0
-1084 -1088 0
-1085 -1086 0
-1085 -1087 0
-1085 -1088 0
-1086 -1087 0
-1086 -1088 0
-1087 -1088 0
1089 1090 1091 1092 1093 1094 1095 1096 1097 1098 1099 1100 1101 1102 1103 1104 0
-1089 -1090 0
-1089 -1091 0
-1089 -1092 0
-1089 -1093 0
-1089 -1094 0
-1089 -1095 0
-1089 -1096 0
-1089 -1097 0
-1089 -1098 0
-1089 -1099 0
-1089 -1100 0
-1089 -1101 0
-1089 -1102 0
-1089 -1103 0
-1089 -1104 0
-1090 -1091 0
-1090 -1092 0
-1090 -1093 0
-1090 -1094 0
-1090 -1095 0
-1090 -1096 0
-1090 -1097 0
-1090 -1098 0
-1090 -1099 0
-1090 -1100 0
-1090 -1101 0
-1090 -1102 0
-1090 -1103 0
-1090 -1104 0
-1091 -1092 0
-1091 -1093 0
-1091 -1094 0
-1091 -1095 0
-1091 -1096 0
-1091 -1097 0
-1091 -1098 0
-1091 -1099 0
-1091 -1100 0
-1091 -1101 0
-1091 -1102 0
-1091 -1103 0
-1091 -1104 0
-1092 -1093 0
-1092 -1094 0
-1092 -1095 0
-1092 -1096 0
-1092 -1097 0
-1092 -1098 0
-1092 -1099 0
-1092 -1100 0
-1092 -1101 0
-1092 -1102 0
-1092 -1103 0
-1092 -1104 0
-1093 -1094 0
-1093 -1095 0
-1093 -1096 0
-1093 -1097 0
-1093 -1098 0
-1093 -1099 0
-1093 -1100 0
-1093 -1101 0
-1093 -1102 0
-1093 -1103 0
-1093 -1104 0
-1094 -1095 0
-1094 -1096 0
-1094 -1097 0
-1094 -1098 0
-1094 -1099 0
-1094 -1100 0
-1094 -1101 0
-1094 -1102 0
-1094 -1103 0
-1094 -1104 0
-1095 -1096 0
-1095 -1097 0
-1095 -1098 0
-1095 -1099 0
-1095 -1100 0
-1095 -1101 0
-1095 -1102 0
-1095 -1103 0
-1095 -1104 0
-1096 -1097 0
-1096 -1098 0
-1096 -1099 0
-1096 -1100 0
-1096 -1101 0
-1096 -1102 0
-1096 -1103 0
-1096 -1104 0
-1097 -1098 0
-1097 -1099 0
-1097 -1100 0
-1097 -1101 0
-1097 -1102 0
-1097 -1103 0
-1097 -1104 0
-1098 -1099 0
-1098 -1100 0
-1098 -1101 0
-1098 -1102 0
-1098 -1103 0
-1098 -1104 0
-1099 -1100 0
-1099 -1101 0
-1099 -1102 0
-1099 -1103 0
-1099 -1104 0
-1100 -1101 0
-1100 -1102 0
-1100 -1103 0
-1100 -1104 0
-1101 -1102 0
-1101 -1103 0
-1101 -1104 0
-1102 -1103 0
-1102 -1104 0
-1103 -1104 0
1105 1106 1107 1108 1109 1110 1111 1112 1113 1114 1115 1116 1117 1118 1119 1120 0
-1105 -1106 0
-1105 -1107 0
-1105 -1108 0
-1105 -1109 0
-1105 -1110 0
-1105 -1111 0
-1105 -1112 0
-1105 -1113 0
-1105 -1114 0
-1105 -1115 0
-1105 -1116 0
-1105 -1117 0
-1105 -1118 0
-1105 -1119 0
-1105 -1120 0
-1106 -1107 0
-1106 -1108 0
-1106 -1109 0
-1106 -1110 0
-1106 -1111 0
-1106 -1112 0
-1106 -1113 0
-1106 -1114 0
-1106 -1115 0
-1106 -1116 0
-1106 -1117 0
-1106 -1118 0
-1106 -1119 0
-1106 -1120 0
-1107 -1108 0
-1107 -1109 0
-1107 -1110 0
-1107 -1111 0
-1107 -1112 0
-1107 -1113 0
-1107 -1114 0
-1107 -1115 0
-1107 -1116 0
-1107 -1117 0
-1107 -1118 0
-1107 -1119 0
-1107 -1120 0
-1108 -1109 0
-1108 -1110 0
-1108 -1111 0
-1108 -1112 0
-1108 -1113 0
-1108 -1114 0
-1108 -1115 0
-1108 -1116 0
-1108 -1117 0
-1108 -1118 0
-1108 -1119 0
-1108 -1120 0
-1109 -1110 0
-1109 -1111 0
-1109 -1112 0
-1109 -1113 0
-1109 -1114 0
-1109 -1115 0
-1109 -1116 0
-1109 -1117 0
-1109 -1118 0
-1109 -1119 0
-1109 -1120 0
-1110 -1111 0
-1110 -1112 0
-1110 -1113 0
-1110 -1114 0
-1110 -1115 0
-1110 -1116 0
-1110 -1117 0
-1110 -1118 0
-1110 -1119 0
-1110 -1120 0
-1111 -1112 0
-1111 -1113 0
-1111 -1114 0
-1111 -1115 0
-1111 -1116 0
-1111 -1117 0
-1111 -1118 0
-1111 -1119 0
-1111 -1120 0
-1112 -1113 0
-1112 -1114 0
-1112 -1115 0
-1112 -1116 0
-1112 -1117 0
-1112 -1118 0
-1112 -1119 0
-1112 -1120 0
-1113 -1114 0
-1113 -1115 0
-1113 -1116 0
-1113 -1117 0
-1113 -1118 0
-1113 -1119 0
-1113 -1120 0
-1114 -1115 0
-1114 -1116 0
-1114 -1117 0
-1114 -1118 0
-1114 -1119 0
-1114 -1120 0
-1115 -1116 0
-1115 -1117 0
-1115 -1118 0
-1115 -1119 0
-1115 -1120 0
-1116 -1117 0
-1116 -1118 0
-1116 -1119 0
-1116 -1120 0
-1117 -1118 0
-1117 -1119 0
-1117 -1120 0
-1118 -1119 0
-1118 -1120 0
-1119 -1120 0
1121 1122 1123 1124 1125 1126 1127 1128 1129 1130 1131 1132 1133 1134 1135 1136 0
-1121 -1122 0
-1121 -1123 0
-1121 -1124 0
-1121 -1125 0
-1121 -1126 0
-1121 -1127 0
-1121 -1128 0
-1121 -1129 0
-1121 -1130 0
-1121 -1131 0
-1121 -1132 0
-1121 -1133 0
-1121 -1134 0
-1121 -1135 0
-1121 -1136 0
-1122 -1123 0
-1122 -1124 0
-1122 -1125 0
-1122 -1126 0
-1122 -1127 0
-1122 -1128 0
-1122 -1129 0
-1122 -1130 0
-1122 -1131 0
-1122 -1132 0
-1122 -1133 0
-1122 -1134 0
-1122 -1135 0
-1122 -1136 0
-1123 -1124 0
-1123 -1125 0
-1123 -1126 0
-1123 -1127 0
-1123 -1128 0
-1123 -1129 0
-1123 -1130 0
-1123 -1131 0
-1123 -1132 0
-1123 -1133 0
-1123 -1134 0
-1123 -1135 0
-1123 -1136 0
-1124 -1125 0
-1124 -1126 0
-1124 -1127 0
-1124 -1128 0
-1124 -1129 0
-1124 -1130 0
-1124 -1131 0
-1124 -1132 0
-1124 -1133 0
-1124 -1134 0
-1124 -1135 0
-1124 -1136 0
-1125 -1126 0
-1125 -1127 0
-1125 -1128 0
-1125 -1129 0
-1125 -1130 0
-1125 -1131 0
-1125 -1132 0
-1125 -1133 0
-1125 -1134 0
-1125 -1135 0
-1125 -1136 0
-1126 -1127 0
-1126 -1128 0
-1126 -1129 0
-1126 -1130 0
-1126 -1131 0
-1126 -1132 0
-1126 -1133 0
-1126 -1134 0
-1126 -1135 0
-1126 -1136 0
-1127 -1128 0
-1127 -1129 0
-1127 -1130 0
-1127 -1131 0
-1127 -1132 0
-1127 -1133 0
-1127 -1134 0
-1127 -1135 0
-1127 -1136 0
-1128 -1129 0
-1128 -1130 0
-1128 -1131 0
-1128 -1132 0
-1128 -1133 0
-1128 -1134 0
-1128 -1135 0
-1128 -1136 0
-1129 -1130 0
-1129 -1131 0
-1129 -1132 0
-1129 -1133 0
-1129 -1134 0
-1129 -1135 0
-1129 -1136 0
-1130 -1131 0
-1130 -1132 0
-1130 -1133 0
-1130 -1134 0
-1130 -1135 0
-1130 -1136 0
-1131 -1132 0
-1131 -1133 0
-1131 -1134 0
-1131 -1135 0
-1131 -1136 0
-1132 -1133 0
-1132 -1134 0
-1132 -1135 0
-1132 -1136 0
-1133 -1134 0
-1133 -1135 0
-1133 -1136 0
-1134 -1135 0
-1134 -1136 0
-1135 -1136 0
1137 1138 1139 1140 1141 1142 1143 1144 1145 1146 1147 1148 1149 1150 1151 1152 0
-1137 -1138 0
-1137 -1139 0
-1137 -1140 0
-1137 -1141 0
-1137 -1142 0
-1137 -1143 0
-1137 -1144 0
-1137 -1145 0
-1137 -1146 0
-1137 -1147 0
-1137 -1148 0
-1137 -1149 0
-1137 -1150 0
-1137 -1151 0
-1137 -1152 0
-1138 -1139 0
-1138 -1140 0
-1138 -1141 0
-1138 -1142 0
-1138 -1143 0
-1138 -1144 0
-1138 -1145 0
-1138 -1146 0
-1138 -1147 0
-1138 -1148 0
-1138 -1149 0
-1138 -1150 0
-1138 -1151 0
-1138 -1152 0
-1139 -1140 0
-1139 -1141 0
-1139 -1142 0
-1139 -1143 0
-1139 -1144 0
-1139 -1145 0
-1139 -1146 0
-1139 -1147 0
-1139 -1148 0
-1139 -1149 0
-1139 -1150 0
-1139 -1151 0
-1139 -1152 0
-1140 -1141 0
-1140 -1142 0
-1140 -1143 0
-1140 -1144 0
-1140 -1145 0
-1140 -1146 0
-1140 -1147 0
-1140 -1148 0
-1140 -1149 0
-1140 -1150 0
-1140 -1151 0
-1140 -1152 0
-1141 -1142 0
-1141 -1143 0
-1141 -1144 0
-1141 -1145 0
-1141 -1146 0
-1141 -1147 0
-1141 -1148 0
-1141 -1149 0
-1141 -1150 0
-1141 -1151 0
-1141 -1152 0
-1142 -1143 0
-1142 -1144 0
-1142 -1145 0
-1142 -1146 0
-1142 -1147 0
-1142 -1148 0
-1142 -1149 0
-1142 -1150 0
-1142 -1151 0
-1142 -1152 0
-1143 -1144 0
-1143 -1145 0
-1143 -1146 0
-1143 -1147 0
-1143 -1148 0
-1143 -1149 0
-1143 -1150 0
-1143 -1151 0
-1143 -1152 0
-1144 -1145 0
-1144 -1146 0
-1144 -1147 0
-1144 -1148 0
-1144 -1149 0
-1144 -1150 0
-1144 -1151 0
-1144 -1152 0
-1145 -1146 0
-1145 -1147 0
-1145 -1148 0
-1145 -1149 0
-1145 -1150 0
-1145 -1151 0
-1145 -1152 0
-1146 -1147 0
-1146 -1148 0
-1146 -1149 0
-1146 -1150 0
-1146 -1151 0
-1146 -1152 0
-1147 -1148 0
-1147 -1149 0
-1147 -1150 0
-1147 -1151 0
-1147 -1152 0
-1148 -1149 0
-1148 -1150 0
-1148 -1151 0
-1148 -1152 0
-1149 -1150 0
-1149 -1151 0
-1149 -1152 0
-1150 -1151 0
-1150 -1152 0
-1151 -1152 0
1153 1154 1155 1156 1157 1158 1159 1160 1161 1162 1163 1164 1165 1166 1167 1168 0
-1153 -1154 0
-1153 -1155 0
-1153 -1156 0
-1153 -1157 0
-1153 -1158 0
-1153 -1159 0
-1153 -1160 0
-1153 -1161 0
-1153 -1162 0
-1153 -1163 0
-1153 -1164 0
-1153 -1165 0
-1153 -1166 0
-1153 -1167 0
-1153 -1168 0
-1154 -1155 0
-1154 -1156 0
-1154 -1157 0
-1154 -1158 0
-1154 -1159 0
-1154 -1160 0
-1154 -1161 0
-1154 -1162 0
-1154 -1163 0
-1154 -1164 0
-1154 -1165 0
-1154 -1166 0
-1154 -1167 0
-1154 -1168 0
-1155 -1156 0
-1155 -1157 0
-1155 -1158 0
-1155 -1159 0
-1155 -1160 0
-1155 -1161 0
-1155 -1162 0
-1155 -1163 0
-1155 -1164 0
-1155 -1165 0
-1155 -1166 0
-1155 -1167 0
-1155 -1168 0
-1156 -1157 0
-1156 -1158 0
-1156 -1159 0
-1156 -1160 0
-1156 -1161 0
-1156 -1162 0
-1156 -1163 0
-1156 -1164 0
-1156 -1165 0
-1156 -1166 0
-1156 -1167 0
-1156 -1168 0
-1157 -1158 0
-1157 -1159 0
-1157 -1160 0
-1157 -1161 0
-1157 -1162 0
-1157 -1163 0
-1157 -1164 0
-1157 -1165 0
-1157 -1166 0
-1157 -1167 0
-1157 -1168 0
-1158 -1159 0
-1158 -1160 0
-1158 -1161 0
-1158 -1162 0
-1158 -1163 0
-1158 -1164 0
-1158 -1165 0
-1158 -1166 0
-1158 -1167 0
-1158 -1168 0
-1159 -1160 0
-1159 -1161 0
-1159 -1162 0
-1159 -1163 0
-1159 -1164 0
-1159 -1165 0
-1159 -1166 0
-1159 -1167 0
-1159 -1168 0
-1160 -1161 0
-1160 -1162 0
-1160 -1163 0
-1160 -1164 0
-1160 -1165 0
-1160 -1166 0
-1160 -1167 0
-1160 -1168 0
-1161 -1162 0
-1161 -1163 0
-1161 -1164 0
-1161 -1165 0
-1161 -1166 0
-1161 -1167 0
-1161 -1168 0
-1162 -1163 0
-1162 -1164 0
-1162 -1165 0
-1162 -1166 0
-1162 -1167 0
-1162 -1168 0
-1163 -1164 0
-1163 -1165 0
-1163 -1166 0
-1163 -1167 0
-1163 -1168 0
-1164 -1165 0
-1164 -1166 0
-1164 -1167 0
-1164 -1168 0
-1165 -1166 0
-1165 -1167 0
-1165 -1168 0
-1166 -1167 0
-1166 -1168 0
-1167 -1168 0
1169 1170 1171 1172 1173 1174 1175 1176 1177 1178 1179 1180 1181 1182 1183 1184 0
-1169 -1170 0
-1169 -1171 0
-1169 -1172 0
-1169 -1173 0
-1169 -1174 0
-1169 -1175 0
-1169 -1176 0
-1169 -1177 0
-1169 -1178 0
-1169 -1179 0
-1169 -1180 0
-1169 -1181 0
-1169 -1182 0
-1169 -1183 0
-1169 -1184 0
-1170 -1171 0
-1170 -1172 0
-1170 -1173 0
-1170 -1174 0
-1170 -1175 0
-1170 -1176 0
-1170 -1177 0
-1170 -1178 0
-1170 -1179 0
-1170 -1180 0
-1170 -1181 0
-1170 -1182 0
-1170 -1183 0
-1170 -1184 0
-1171 -1172 0
-1171 -1173 0
-1171 -1174 0
-1171 -1175 0
-1171 -1176 0
-1171 -1177 0
-1171 -1178 0
-1171 -1179 0
-1171 -1180 0
-1171 -1181 0
-1171 -1182 0
-1171 -1183 0
-1171 -1184 0
-1172 -1173 0
-1172 -1174 0
-1172 -1175 0
-1172 -1176 0
-1172 -1177 0
-1172 -1178 0
-1172 -1179 0
-1172 -1180 0
-1172 -1181 0
-1172 -1182 0
-1172 -1183 0
-1172 -1184 0
-1173 -1174 0
-1173 -1175 0
-1173 -1176 0
-1173 -1177 0
-1173 -1178 0
-1173 -1179 0
-1173 -1180 0
-1173 -1181 0
-1173 -1182 0
-1173 -1183 0
-1173 -1184 0
-1174 -1175 0
-1174 -1176 0
-1174 -1177 0
-1174 -1178 0
-1174 -1179 0
-1174 -1180 0
-1174 -1181 0
-1174 -1182 0
-1174 -1183 0
-1174 -1184 0
-1175 -1176 0
-1175 -1177 0
-1175 -1178 0
-1175 -1179 0
-1175 -1180 0
-1175 -1181 0
-1175 -1182 0
-1175 -1183 0
-1175 -1184 0
-1176 -1177 0
-1176 -1178 0
-1176 -1179 0
-1176 -1180 0
-1176 -1181 0
-1176 -1182 0
-1176 -1183 0
-1176 -1184 0
-1177 -1178 0
-1177 -1179 0
-1177 -1180 0
-1177 -1181 0
-1177 -1182 0
-1177 -1183 0
-1177 -1184 0
-1178 -1179 0
-1178 -1180 0
-1178 -1181 0
-1178 -1182 0
-1178 -1183 0
-1178 -1184 0
-1179 -1180 0
-1179 -1181 0
-1179 -1182 0
-1179 -1183 0
-1179 -1184 0
-1180 -1181 0
-1180 -1182 0
-1180 -1183 0
-1180 -1184 0
-1181 -1182 0
-1181 -1183 0
-1181 -1184 0
-1182 -1183 0
-1182 -1184 0
-1183 -1184 0
1185 1186 1187 1188 1189 1190 1191 1192 1193 1194 1195 1196 1197 1198 1199 1200 0
-1185 -1186 0
-1185 -1187 0
-1185 -1188 0
-1185 -1189 0
-1185 -1190 0
-1185 -1191 0
-1185 -1192 0
-1185 -1193 0
-1185 -1194 0
-1185 -1195 0
-1185 -1196 0
-1185 -1197 0
-1185 -1198 0
-1185 -1199 0
-1185 -1200 0
-1186 -1187 0
-1186 -1188 0
-1186 -1189 0
-1186 -1190 0
-1186 -1191 0
-1186 -1192 0
-1186 -1193 0
-1186 -1194 0
-1186 -1195 0
-1186 -1196 0
-1186 -1197 0
-1186 -1198 0
-1186 -1199 0
-1186 -1200 0
-1187 -1188 0
-1187 -1189 0
-1187 -1190 0
-1187 -1191 0
-1187 -1192 0
-1187 -1193 0
-1187 -1194 0
-1187 -1195 0
-1187 -1196 0
-1187 -1197 0
-1187 -1198 0
-1187 -1199 0
-1187 -1200 0
-1188 -1189 0
-1188 -1190 0
-1188 -1191 0
-1188 -1192 0
-1188 -1193 0
-1188 -1194 0
-1188 -1195 0
-1188 -1196 0
-1188 -1197 0
-1188 -1198 0
-1188 -1199 0
-1188 -1200 0
-1189 -1190 0
-1189 -1191 0
-1189 -1192 0
-1189 -1193 0
-1189 -1194 0
-1189 -1195 0
-1189 -1196 0
-1189 -1197 0
-1189 -1198 0
-1189 -1199 0
-1189 -1200 0
-1190 -1191 0
-1190 -1192 0
-1190 -1193 0
-1190 -1194 0
-1190 -1195 0
-1190 -1196 0
-1190 -1197 0
-1190 -1198 0
-1190 -1199 0
-1190 -1200 0
-1191 -1192 0
-1191 -1193 0
-1191 -1194 0
-1191 -1195 0
-1191 -1196 0
-1191 -1197 0
-1191 -1198 0
-1191 -1199 0
-1191 -1200 0
-1192 -1193 0
-1192 -1194 0
-1192 -1195 0
-1192 -1196 0
-1192 -1197 0
-1192 -1198 0
-1192 -1199 0
-1192 -1200 0
-1193 -1194 0
-1193 -1195 0
-1193 -1196 0
-1193 -1197 0
-1193 -1198 0
-1193 -1199 0
-1193 -1200 0
-1194 -1195 0
-1194 -1196 0
-1194 -1197 0
-1194 -1198 0
-1194 -1199 0
-1194 -1200 0
-1195 -1196 0
-1195 -1197 0
-1195 -1198 0
-1195 -1199 0
-1195 -1200 0
-1196 -1197 0
-1196 -1198 0
-1196 -1199 0
-1196 -1200 0
-1197 -1198 0
-1197 -1199 0
-1197 -1200 0
-1198 -1199 0
-1198 -1200 0
-1199 -1200 0
1201 1202 1203 1204 1205 1206 1207 1208 1209 1210 1211 1212 1213 1214 1215 1216 0
-1201 -1202 0
-1201 -1203 0
-1201 -1204 0
-1201 -1205 0
-1201 -1206 0
-1201 -1207 0
-1201 -1208 0
-1201 -1209 0
-1201 -1210 0
-1201 -1211 0
-1201 -1212 0
-1201 -1213 0
-1201 -1214 0
-1201 -1215 0
-1201 -1216 0
-1202 -1203 0
-1202 -1204 0
-1202 -1205 0
-1202 -1206 0
-1202 -1207 0
-1202 -1208 0
-1202 -1209 0
-1202 -1210 0
-1202 -1211 0
-1202 -1212 0
-1202 -1213 0
-1202 -1214 0
-1202 -1215 0
-1202 -1216 0
-1203 -1204 0
-1203 -1205 0
-1203 -1206 0
-1203 -1207 0
-1203 -1208 0
-1203 -1209 0
-1203 -1210 0
-1203 -1211 0
-1203 -1212 0
-1203 -1213 0
-1203 -1214 0
-1203 -1215 0
-1203 -1216 0
-1204 -1205 0
-1204 -1206 0
-1204 -1207 0
-1204 -1208 0
-1204 -1209 0
-1204 -1210 0
-1204 -1211 0
-1204 -1212 0
-1204 -1213 0
-1204 -1214 0
-1204 -1215 0
-1204 -1216 0
-1205 -1206 0
-1205 -1207 0
-1205 -1208 0
-1205 -1209 0
-1205 -1210 0
-1205 -1211 0
-1205 -1212 0
-1205 -1213 0
-1205 -1214 0
-1205 -1215 0
-1205 -1216 0
-1206 -1207 0
-1206 -1208 0
-1206 -1209 0
-1206 -1210 0
-1206 -1211 0
-1206 -1212 0
-1206 -1213 0
-1206 -1214 0
-1206 -1215 0
-1206 -1216 0
-1207 -1208 0
-1207 -1209 0
-1207 -1210 0
-1207 -1211 0
-1207 -1212 0
-1207 -1213 0
-1207 -1214 0
-1207 -1215 0
-1207 -1216 0
-1208 -1209 0
-1208 -1210 0
-1208 -1211 0
-1208 -1212 0
-1208 -1213 0
-1208 -1214 0
-1208 -1215 0
-1208 -1216 0
-1209 -1210 0
-1209 -1211 0
-1209 -1212 0
-1209 -1213 0
-1209 -1214 0
-1209 -1215 0
-1209 -1216 0
-1210 -1211 0
-1210 -1212 0
-1210 -1213 0
-1210 -1214 0
-1210 -1215 0
-1210 -1216 0
-1211 -1212 0
-1211 -1213 0
-1211 -1214 0
-1211 -1215 0
-1211 -1216 0
-1212 -1213 0
-1212 -1214 0
-1212 -1215 0
-1212 -1216 0
-1213 -1214 0
-1213 -1215 0
-1213 -1216 0
-1214 -1215 0
-1214 -1216 0
-1215 -1216 0
1217 1218 1219 1220 1221 1222 1223 1224 1225 1226 1227 1228 1229 1230 1231 1232 0
-1217 -1218 0
-1217 -1219 0
-1217 -1220 0
-1217 -1221 0
-1217 -1222 0
-1217 -1223 0
-1217 -1224 0
-1217 -1225 0
-1217 -1226 0
-1217 -1227 0
-1217 -1228 0
-1217 -1229 0
-1217 -1230 0
-1217 -1231 0
-1217 -1232 0
-1218 -1219 0
-1218 -1220 0
-1218 -1221 0
-1218 -1222 0
-1218 -1223 0
-1218 -1224 0
-1218 -1225 0
-1218 -1226 0
-1218 -1227 0
-1218 -1228 0
-1218 -1229 0
-1218 -1230 0
-1218 -1231 0
-1218 -1232 0
-1219 -1220 0
-1219 -1221 0
-1219 -1222 0
-1219 -1223 0
-1219 -1224 0
-1219 -1225 0
-1219 -1226 0
-1219 -1227 0
-1219 -1228 0
-1219 -1229 0
-1219 -1230 0
-1219 -1231 0
-1219 -1232 0
-1220 -1221 0
-1220 -1222 0
-1220 -1223 0
-1220 -1224 0
-1220 -1225 0
-1220 -1226 0
-1220 -1227 0
-1220 -1228 0
-1220 -1229 0
-1220 -1230 0
-1220 -1231 0
-1220 -1232 0
-1221 -1222 0
-1221 -1223 0
-1221 -1224 0
-1221 -1225 0
-1221 -1226 0
-1221 -1227 0
-1221 -1228 0
-1221 -1229 0
-1221 -1230 0
-1221 -1231 0
-1221 -1232 0
-1222 -1223 0
-1222 -1224 0
-1222 -1225 0
-1222 -1226 0
-1222 -1227 0
-1222 -1228 0
-1222 -1229 0
-1222 -1230 0
-1222 -1231 0
-1222 -1232 0
-1223 -1224 0
-1223 -1225 0
-1223 -1226 0
-1223 -1227 0
-1223 -1228 0
-1223 -1229 0
-1223 -1230 0
-1223 -1231 0
-1223 -1232 0
-1224 -1225 0
-1224 -1226 0
-1224 -1227 0
-1224 -1228 0
-1224 -1229 0
-1224 -1230 0
-1224 -1231 0
-1224 -1232 0
-1225 -1226 0
-1225 -1227 0
-1225 -1228 0
-1225 -1229 0
-1225 -1230 0
-1225 -1231 0
-1225 -1232 0
-1226 -1227 0
-1226 -1228 0
-1226 -1229 0
-1226 -1230 0
-1226 -1231 0
-1226 -1232 0
-1227 -1228 0
-1227 -1229 0
-1227 -1230 0
-1227 -1231 0
-1227 -1232 0
-1228 -1229 0
-1228 -1230 0
-1228 -1231 0
-1228 -1232 0
-1229 -1230 0
-1229 -1231 0
-1229 -1232 0
-1230 -1231 0
-1230 -1232 0
-1231 -1232 0
1233 1234 1235 1236 1237 1238 1239 1240 1241 1242 1243 1244 1245 1246 1247 1248 0
-1233 -1234 0
-1233 -1235 0
-1233 -1236 0
-1233 -1237 0
-1233 -1238 0
-1233 -1239 0
-1233 -1240 0
-1233 -1241 0
-1233 -1242 0
-1233 -1243 0
-1233 -1244 0
-1233 -1245 0
-1233 -1246 0
-1233 -1247 0
-1233 -1248 0
-1234 -1235 0
-1234 -1236 0
-1234 -1237 0
-1234 -1238 0
-1234 -1239 0
-1234 -1240 0
-1234 -1241 0
-1234 -1242 0
-1234 -1243 0
-1234 -1244 0
-1234 -1245 0
-1234 -1246 0
-1234 -1247 0
-1234 -1248 0
-1235 -1236 0
-1235 -1237 0
-1235 -1238 0
-1235 -1239 0
-1235 -1240 0
-1235 -1241 0
-1235 -1242 0
-1235 -1243 0
-1235 -1244 0
-1235 -1245 0
-1235 -1246 0
-1235 -1247 0
-1235 -1248 0
-1236 -1237 0
-1236 -1238 0
-1236 -1239 0
-1236 -1240 0
-1236 -1241 0
-1236 -1242 0
-1236 -1243 0
-1236 -1244 0
-1236 -1245 0
-1236 -1246 0
-1236 -1247 0
-1236 -1248 0
-1237 -1238 0
-1237 -1239 0
-1237 -1240 0
-1237 -1241 0
-1237 -1242 0
-1237 -1243 0
-1237 -1244 0
-1237 -1245 0
-1237 -1246 0
-1237 -1247 0
-1237 -1248 0
-1238 -1239 0
-1238 -1240 0
-1238 -1241 0
-1238 -1242 0
-1238 -1243 0
-1238 -1244 0
-1238 -1245 0
-1238 -1246 0
-1238 -1247 0
-1238 -1248 0
-1239 -1240 0
-1239 -1241 0
-1239 -1242 0
-1239 -1243 0
-1239 -1244 0
-1239 -1245 0
-1239 -1246 0
-1239 -1247 0
-1239 -1248 0
-1240 -1241 0
-1240 -1242 0
-1240 -1243 0
-1240 -1244 0
-1240 -1245 0
-1240 -1246 0
-1240 -1247 0
-1240 -1248 0
-1241 -1242 0
-1241 -1243 0
-1241 -1244 0
-1241 -1245 0
-1241 -1246 0
-1241 -1247 0
-1241 -1248 0
-1242 -1243 0
-1242 -1244 0
-1242 -1245 0
-1242 -1246 0
-1242 -1247 0
-1242 -1248 0
-1243 -1244 0
-1243 -1245 0
-1243 -1246 0
-1243 -1247 0
-1243 -1248 0
-1244 -1245 0
-1244 -1246 0
-1244 -1247 0
-1244 -1248 0
-1245 -1246 0
-1245 -1247 0
-1245 -1248 0
-1246 -1247 0
-1246 -1248 0
-1247 -1248 0
1249 1250 1251 1252 1253 1254 1255 1256 1257 1258 1259 1260 1261 1262 1263 1264 0
-1249 -1250 0
-1249 -1251 0
-1249 -1252 0
-1249 -1253 0
-1249 -1254 0
-1249 -1255 0
-1249 -1256 0
-1249 -1257 0
-1249 -1258 0
-1249 -1259 0
-1249 -1260 0
-1249 -1261 0
-1249 -1262 0
-1249 -1263 0
-1249 -1264 0
-1250 -1251 0
-1250 -1252 0
-1250 -1253 0
-1250 -1254 0
-1250 -1255 0
-1250 -1256 0
-1250 -1257 0
-1250 -1258 0
-1250 -1259 0
-1250 -1260 0
-1250 -1261 0
-1250 -1262 0
-1250 -1263 0
-1250 -1264 0
-1251 -1252 0
-1251 -1253 0
-1251 -1254 0
-1251 -1255 0
-1251 -1256 0
-1251 -1257 0
-1251 -1258 0
-1251 -1259 0
-1251 -1260 0
-1251 -1261 0
-1251 -1262 0
-1251 -1263 0
-1251 -1264 0
-1252 -1253 0
-1252 -1254 0
-1252 -1255 0
-1252 -1256 0
-1252 -1257 0
-1252 -1258 0
-1252 -1259 0
-1252 -1260 0
-1252 -1261 0
-1252 -1262 0
-1252 -1263 0
-1252 -1264 0
-1253 -1254 0
-1253 -1255 0
-1253 -1256 0
-1253 -1257 0
-1253 -1258 0
-1253 -1259 0
-1253 -1260 0
-1253 -1261 0
-1253 -1262 0
-1253 -1263 0
-1253 -1264 0
-1254 -1255 0
-1254 -1256 0
-1254 -1257 0
-1254 -1258 0
-1254 -1259 0
-1254 -1260 0
-1254 -1261 0
-1254 -1262 0
-1254 -1263 0
-1254 -1264 0
-1255 -1256 0
-1255 -1257 0
-1255 -1258 0
-1255 -1259 0
-1255 -1260 0
-1255 -1261 0
-1255 -1262 0
-1255 -1263 0
-1255 -1264 0
-1256 -1257 0
-1256 -1258 0
-1256 -1259 0
-1256 -1260 0
-1256 -1261 0
-1256 -1262 0
-1256 -1263 0
-1256 -1264 0
-1257 -1258 0
-1257 -1259 0
-1257 -1260 0
-1257 -1261 0
-1257 -1262 0
-1257 -1263 0
-1257 -1264 0
-1258 -1259 0
-1258 -1260 0
-1258 -1261 0
-1258 -1262 0
-1258 -1263 0
-1258 -1264 0
-1259 -1260 0
-1259 -1261 0
-1259 -1262 0
-1259 -1263 0
-1259 -1264 0
-1260 -1261 0
-1260 -1262 0
-1260 -1263 0
-1260 -1264 0
-1261 -1262 0
-1261 -1263 0
-1261 -1264 0
-1262 -1263 0
-1262 -1264 0
-1263 -1264 0
1265 1266 1267 1268 1269 1270 1271 1272 1273 1274 1275 1276 1277 1278 1279 1280 0
-1265 -1266 0
-1265 -1267 0
-1265 -1268 0
-1265 -1269 0
-1265 -1270 0
-1265 -1271 0
-1265 -1272 0
-1265 -1273 0
-1265 -1274 0
-1265 -1275 0
-1265 -1276 0
-1265 -1277 0
-1265 -1278 0
-1265 -1279 0
-1265 -1280 0
-1266 -1267 0
-1266 -1268 0
-1266 -1269 0
-1266 -1270 0
-1266 -1271 0
-1266 -1272 0
-1266 -1273 0
-1266 -1274 0
-1266 -1275 0
-1266 -1276 0
-1266 -1277 0
-1266 -1278 0
-1266 -1279 0
-1266 -1280 0
-1267 -1268 0
-1267 -1269 0
-1267 -1270 0
-1267 -1271 0
-1267 -1272 0
-1267 -1273 0
-1267 -1274 0
-1267 -1275 0
-1267 -1276 0
-1267 -1277 0
-1267 -1278 0
-1267 -1279 0
-1267 -1280 0
-1268 -1269 0
-1268 -1270 0
-1268 -1271 0
-1268 -1272 0
-1268 -1273 0
-1268 -1274 0
-1268 -1275 0
-1268 -1276 0
-1268 -1277 0
-1268 -1278 0
-1268 -1279 0
-1268 -1280 0
-1269 -1270 0
-1269 -1271 0
-1269 -1272 0
-1269 -1273 0
-1269 -1274 0
-1269 -1275 0
-1269 -1276 0
-1269 -1277 0
-1269 -1278 0
-1269 -1279 0
-1269 -1280 0
-1270 -1271 0
-1270 -1272 0
-1270 -1273 0
-1270 -1274 0
-1270 -1275 0
-1270 -1276 0
-1270 -1277 0
-1270 -1278 0
-1270 -1279 0
-1270 -1280 0
-1271 -1272 0
-1271 -1273 0
-1271 -1274 0
-1271 -1275 0
-1271 -1276 0
-1271 -1277 0
-1271 -1278 0
-1271 -1279 0
-1271 -1280 0
-1272 -1273 0
-1272 -1274 0
-1272 -1275 0
-1272 -1276 0
-1272 -1277 0
-1272 -1278 0
-1272 -1279 0
-1272 -1280 0
-1273 -1274 0
-1273 -1275 0
-1273 -1276 0
-1273 -1277 0
-1273 -1278 0
-1273 -1279 0
-1273 -1280 0
-1274 -1275 0
-1274 -1276 0
-1274 -1277 0
-1274 -1278 0
-1274 -1279 0
-1274 -1280 0
-1275 -1276 0
-1275 -1277 0
-1275 -1278 0
-1275 -1279 0
-1275 -1280 0
-1276 -1277 0
-1276 -1278 0
-1276 -1279 0
-1276 -1280 0
-1277 -1278 0
-1277 -1279 0
-1277 -1280 0
-1278 -1279 0
-1278 -1280 0
-1279 -1280 0
1281 1282 1283 1284 1285 1286 1287 1288 1289 1290 1291 1292 1293 1294 1295 1296 0
-1281 -1282 0
-1281 -1283 0
-1281 -1284 0
-1281 -1285 0
-1281 -1286 0
-1281 -1287 0
-1281 -1288 0
-1281 -1289 0
-1281 -1290 0
-1281 -1291 0
-1281 -1292 0
-1281 -1293 0
-1281 -1294 0
-1281 -1295 0
-1281 -1296 0
-1282 -1283 0
-1282 -1284 0
-1282 -1285 0
-1282 -1286 0
-1282 -1287 0
-1282 -1288 0
-1282 -1289 0
-1282 -1290 0
-1282 -1291 0
-1282 -1292 0
-1282 -1293 0
-1282 -1294 0
-1282 -1295 0
-1282 -1296 0
-1283 -1284 0
-1283 -1285 0
-1283 -1286 0
-1283 -1287 0
-1283 -1288 0
-1283 -1289 0
-1283 -1290 0
-1283 -1291 0
-1283 -1292 0
-1283 -1293 0
-1283 -1294 0
-1283 -1295 0
-1283 -1296 0
-1284 -1285 0
-1284 -1286 0
-1284 -1287 0
-1284 -1288 0
-1284 -1289 0
-1284 -1290 0
-1284 -1291 0
-1284 -1292 0
-1284 -1293 0
-1284 -1294 0
-1284 -1295 0
-1284 -1296 0
-1285 -1286 0
-1285 -1287 0
-1285 -1288 0
-1285 -1289 0
-1285 -1290 0
-1285 -1291 0
-1285 -1292 0
-1285 -1293 0
-1285 -1294 0
-1285 -1295 0
-1285 -1296 0
-1286 -1287 0
-1286 -1288 0
-1286 -1289 0
-1286 -1290 0
-1286 -1291 0
-1286 -1292 0
-1286 -1293 0
-1286 -1294 0
-1286 -1295 0
-1286 -1296 0
-1287 -1288 0
-1287 -1289 0
-1287 -1290 0
-1287 -1291 0
-1287 -1292 0
-1287 -1293 0
-1287 -1294 0
-1287 -1295 0
-1287 -1296 0
-1288 -1289 0
-1288 -1290 0
-1288 -1291 0
-1288 -1292 0
-1288 -1293 0
-1288 -1294 0
-1288 -1295 0
-1288 -1296 0
-1289 -1290 0
-1289 -1291 0
-1289 -1292 0
-1289 -1293 0
-1289 -1294 0
-1289 -1295 0
-1289 -1296 0
-1290 -1291 0
-1290 -1292 0
-1290 -1293 0
-1290 -1294 0
-1290 -1295 0
-1290 -1296 0
-1291 -1292 0
-1291 -1293 0
-1291 -1294 0
-1291 -1295 0
-1291 -1296 0
-1292 -1293 0
-1292 -1294 0
-1292 -1295 0
-1292 -1296 0
-1293 -1294 0
-1293 -1295 0
-1293 -1296 0
-1294 -1295 0
-1294 -1296 0
-1295 -1296 0
1297 1298 1299 1300 1301 1302 1303 1304 1305 1306 1307 1308 1309 1310 1311 1312 0
-1297 -1298 0
-1297 -1299 0
-1297 -1300 0
-1297 -1301 0
-1297 -1302 0
-1297 -1303 0
-1297 -1304 0
-1297 -1305 0
-1297 -1306 0
-1297 -1307 0
-1297 -1308 0
-1297 -1309 0
-1297 -1310 0
-1297 -1311 0
-1297 -1312 0
-1298 -1299 0
-1298 -1300 0
-1298 -1301 0
-1298 -1302 0
-1298 -1303 0
-1298 -1304 0
-1298 -1305 0
-1298 -1306 0
-1298 -1307 0
-1298 -1308 0
-1298 -1309 0
-1298 -1310 0
-1298 -1311 0
-1298 -1312 0
-1299 -1300 0
-1299 -1301 0
-1299 -1302 0
-1299 -1303 0
-1299 -1304 0
-1299 -1305 0
-1299 -1306 0
-1299 -1307 0
-1299 -1308 0
-1299 -1309 0
-1299 -1310 0
-1299 -1311 0
-1299 -1312 0
-1300 -1301 0
-1300 -1302 0
-1300 -1303 0
-1300 -1304 0
-1300 -1305 0
-1300 -1306 0
-1300 -1307 0
-1300 -1308 0
-1300 -1309 0
-1300 -1310 0
-1300 -1311 0
-1300 -1312 0
-1301 -1302 0
-1301 -1303 0
-1301 -1304 0
-1301 -1305 0
-1301 -1306 0
-1301 -1307 0
-1301 -1308 0
-1301 -1309 0
-1301 -1310 0
-1301 -1311 0
-1301 -1312 0
-1302 -1303 0
-1302 -1304 0
-1302 -1305 0
-1302 -1306 0
-1302 -1307 0
-1302 -1308 0
-1302 -1309 0
-1302 -1310 0
-1302 -1311 0
-1302 -1312 0
-1303 -1304 0
-1303 -1305 0
-1303 -1306 0
-1303 -1307 0
-1303 -1308 0
-1303 -1309 0
-1303 -1310 0
-1303 -1311 0
-1303 -1312 0
-1304 -1305 0
-1304 -1306 0
-1304 -1307 0
-1304 -1308 0
-1304 -1309 0
-1304 -1310 0
-1304 -1311 0
-1304 -1312 0
-1305 -1306 0
-1305 -1307 0
-1305 -1308 0
-1305 -1309 0
-1305 -1310 0
-1305 -1311 0
-1305 -1312 0
-1306 -1307 0
-1306 -1308 0
-1306 -1309 0
-1306 -1310 0
-1306 -1311 0
-1306 -1312 0
-1307 -1308 0
-1307 -1309 0
-1307 -1310 0
-1307 -1311 0
-1307 -1312 0
-1308 -1309 0
-1308 -1310 0
-1308 -1311 0
-1308 -1312 0
-1309 -1310 0
-1309 -1311 0
-1309 -1312 0
-1310 -1311 0
-1310 -1312 0
-1311 -1312 0
1313 1314 1315 1316 1317 1318 1319 1320 1321 1322 1323 1324 1325 1326 1327 1328 0
-1313 -1314 0
-1313 -1315 0
-1313 -1316 0
-1313 -1317 0
-1313 -1318 0
-1313 -1319 0
-1313 -1320 0
-1313 -1321 0
-1313 -1322 0
-1313 -1323 0
-1313 -1324 0
-1313 -1325 0
-1313 -1326 0
-1313 -1327 0
-1313 -1328 0
-1314 -1315 0
-1314 -1316 0
-1314 -1317 0
-1314 -1318 0
-1314 -1319 0
-1314 -1320 0
-1314 -1321 0
-1314 -1322 0
-1314 -1323 0
-1314 -1324 0
-1314 -1325 0
-1314 -1326 0
-1314 -1327 0
-1314 -1328 0
-1315 -1316 0
-1315 -1317 0
-1315 -1318 0
-1315 -1319 0
-1315 -1320 0
-1315 -1321 0
-1315 -1322 0
-1315 -1323 0
-1315 -1324 0
-1315 -1325 0
-1315 -1326 0
-1315 -1327 0
-1315 -1328 0
-1316 -1317 0
-1316 -1318 0
-1316 -1319 0
-1316 -1320 0
-1316 -1321 0
-1316 -1322 0
-1316 -1323 0
-1316 -1324 0
-1316 -1325 0
-1316 -1326 0
-1316 -1327 0
-1316 -1328 0
-1317 -1318 0
-1317 -1319 0
-1317 -1320 0
-1317 -1321 0
-1317 -1322 0
-1317 -1323 0
-1317 -1324 0
-1317 -1325 0
-1317 -1326 0
-1317 -1327 0
-1317 -1328 0
-1318 -1319 0
-1318 -1320 0
-1318 -1321 0
-1318 -1322 0
-1318 -1323 0
-1318 -1324 0
-1318 -1325 0
-1318 -1326 0
-1318 -1327 0
-1318 -1328 0
-1319 -1320 0
-1319 -1321 0
-1319 -1322 0
-1319 -1323 0
-1319 -1324 0
-1319 -1325 0
-1319 -1326 0
-1319 -1327 0
-1319 -1328 0
-1320 -1321 0
-1320 -1322 0
-1320 -1323 0
-1320 -1324 0
-1320 -1325 0
-1320 -1326 0
-1320 -1327 0
-1320 -1328 0
-1321 -1322 0
-1321 -1323 0
-1321 -1324 0
-1321 -1325 0
-1321 -1326 0
-1321 -1327 0
-1321 -1328 0
-1322 -1323 0
-1322 -1324 0
-1322 -1325 0
-1322 -1326 0
-1322 -1327 0
-1322 -1328 0
-1323 -1324 0
-1323 -1325 0
-1323 -1326 0
-1323 -1327 0
-1323 -1328 0
-1324 -1325 0
-1324 -1326 0
-1324 -1327 0
-1324 -1328 0
-1325 -1326 0
-1325 -1327 0
-1325 -1328 0
-1326 -1327 0
-1326 -1328 0
-1327 -1328 0
1329 1330 1331 1332 1333 1334 1335 1336 1337 1338 1339 1340 1341 1342 1343 1344 0
-1329 -1330 0
-1329 -1331 0
-1329 -1332 0
-1329 -1333 0
-1329 -1334 0
-1329 -1335 0
-1329 -1336 0
-1329 -1337 0
-1329 -1338 0
-1329 -1339 0
-1329 -1340 0
-1329 -1341 0
-1329 -1342 0
-1329 -1343 0
-1329 -1344 0
-1330 -1331 0
-1330 -1332 0
-1330 -1333 0
-1330 -1334 0
-1330 -1335 0
-1330 -1336 0
-1330 -1337 0
-1330 -1338 0
-1330 -1339 0
-1330 -1340 0
-1330 -1341 0
-1330 -1342 0
-1330 -1343 0
-1330 -1344 0
-1331 -1332 0
-1331 -1333 0
-1331 -1334 0
-1331 -1335 0
-1331 -1336 0
-1331 -1337 0
-1331 -1338 0
-1331 -1339 0
-1331 -1340 0
-1331 -1341 0
-1331 -1342 0
-1331 -1343 0
-1331 -1344 0
-1332 -1333 0
-1332 -1334 0
-1332 -1335 0
-1332 -1336 0
-1332 -1337 0
-1332 -1338 0
-1332 -1339 0
-1332 -1340 0
-1332 -1341 0
-1332 -1342 0
-1332 -1343 0
-1332 -1344 0
-1333 -1334 0
-1333 -1335 0
-1333 -1336 0
-1333 -1337 0
-1333 -1338 0
-1333 -1339 0
-1333 -1340 0
-1333 -1341 0
-1333 -1342 0
-1333 -1343 0
-1333 -1344 0
-1334 -1335 0
-1334 -1336 0
-1334 -1337 0
-1334 -1338 0
-1334 -1339 0
-1334 -1340 0
-1334 -1341 0
-1334 -1342 0
-1334 -1343 0
-1334 -1344 0
-1335 -1336 0
-1335 -1337 0
-1335 -1338 0
-1335 -1339 0
-1335 -1340 0
-1335 -1341 0
-1335 -1342 0
-1335 -1343 0
-1335 -1344 0
-1336 -1337 0
-1336 -1338 0
-1336 -1339 0
-1336 -1340 0
-1336 -1341 0
-1336 -1342 0
-1336 -1343 0
-1336 -1344 0
-1337 -1338 0
-1337 -1339 0
-1337 -1340 0
-1337 -1341 0
-1337 -1342 0
-1337 -1343 0
-1337 -1344 0
-1338 -1339 0
-1338 -1340 0
-1338 -1341 0
-1338 -1342 0
-1338 -1343 0
-1338 -1344 0
-1339 -1340 0
-1339 -1341 0
-1339 -1342 0
-1339 -1343 0
-1339 -1344 0
-1340 -1341 0
-1340 -1342 0
-1340 -1343 0
-1340 -1344 0
-1341 -1342 0
-1341 -1343 0
-1341 -1344 0
-1342 -1343 0
-1342 -1344 0
-1343 -1344 0
1345 1346 1347 1348 1349 1350 1351 1352 1353 1354 1355 1356 1357 1358 1359 1360 0
-1345 -1346 0
-1345 -1347 0
-1345 -1348 0
-1345 -1349 0
-1345 -1350 0
-1345 -1351 0
-1345 -1352 0
-1345 -1353 0
-1345 -1354 0
-1345 -1355 0
-1345 -1356 0
-1345 -1357 0
-1345 -1358 0
-1345 -1359 0
-1345 -1360 0
-1346 -1347 0
-1346 -1348 0
-1346 -1349 0
-1346 -1350 0
-1346 -1351 0
-1346 -1352 0
-1346 -1353 0
-1346 -1354 0
-1346 -1355 0
-1346 -1356 0
-1346 -1357 0
-1346 -1358 0
-1346 -1359 0
-1346 -1360 0
-1347 -1348 0
-1347 -1349 0
-1347 -1350 0
-1347 -1351 0
-1347 -1352 0
-1347 -1353 0
-1347 -1354 0
-1347 -1355 0
-1347 -1356 0
-1347 -1357 0
-1347 -1358 0
-1347 -1359 0
-1347 -1360 0
-1348 -1349 0
-1348 -1350 0
-1348 -1351 0
-1348 -1352 0
-1348 -1353 0
-1348 -1354 0
-1348 -1355 0
-1348 -1356 0
-1348 -1357 0
-1348 -1358 0
-1348 -1359 0
-1348 -1360 0
-1349 -1350 0
-1349 -1351 0
-1349 -1352 0
-1349 -1353 0
-1349 -1354 0
-1349 -1355 0
-1349 -1356 0
-1349 -1357 0
-1349 -1358 0
-1349 -1359 0
-1349 -1360 0
-1350 -1351 0
-1350 -1352 0
-1350 -1353 0
-1350 -1354 0
-1350 -1355 0
-1350 -1356 0
-1350 -1357 0
-1350 -1358 0
-1350 -1359 0
-1350 -1360 0
-1351 -1352 0
-1351 -1353 0
-1351 -1354 0
-1351 -1355 0
-1351 -1356 0
-1351 -1357 0
-1351 -1358 0
-1351 -1359 0
-1351 -1360 0
-1352 -1353 0
-1352 -1354 0
-1352 -1355 0
-1352 -1356 0
-1352 -1357 0
-1352 -1358 0
-1352 -1359 0
-1352 -1360 0
-1353 -1354 0
-1353 -1355 0
-1353 -1356 0
-1353 -1357 0
-1353 -1358 0
-1353 -1359 0
-1353 -1360 0
-1354 -1355 0
-1354 -1356 0
-1354 -1357 0
-1354 -1358 0
-1354 -1359 0
-1354 -1360 0
-1355 -1356 0
-1355 -1357 0
-1355 -1358 0
-1355 -1359 0
-1355 -1360 0
-1356 -1357 0
-1356 -1358 0
-1356 -1359 0
-1356 -1360 0
-1357 -1358 0
-1357 -1359 0
-1357 -1360 0
-1358 -1359 0
-1358 -1360 0
-1359 -1360 0
1361 1362 1363 1364 1365 1366 1367 1368 1369 1370 1371 1372 1373 1374 1375 1376 0
-1361 -1362 0
-1361 -1363 0
-1361 -1364 0
-1361 -1365 0
-1361 -1366 0
-1361 -1367 0
-1361 -1368 0
-1361 -1369 0
-1361 -1370 0
-1361 -1371 0
-1361 -1372 0
-1361 -1373 0
-1361 -1374 0
-1361 -1375 0
-1361 -1376 0
-1362 -1363 0
-1362 -1364 0
-1362 -1365 0
-1362 -1366 0
-1362 -1367 0
-1362 -1368 0
-1362 -1369 0
-1362 -1370 0
-1362 -1371 0
-1362 -1372 0
-1362 -1373 0
-1362 -1374 0
-1362 -1375 0
-1362 -1376 0
-1363 -1364 0
-1363 -1365 0
-1363 -1366 0
-1363 -1367 0
-1363 -1368 0
-1363 -1369 0
-1363 -1370 0
-1363 -1371 0
-1363 -1372 0
-1363 -1373 0
-1363 -1374 0
-1363 -1375 0
-1363 -1376 0
-1364 -1365 0
-1364 -1366 0
-1364 -1367 0
-1364 -1368 0
-1364 -1369 0
-1364 -1370 0
-1364 -1371 0
-1364 -1372 0
-1364 -1373 0
-1364 -1374 0
-1364 -1375 0
-1364 -1376 0
-1365 -1366 0
-1365 -1367 0
-1365 -1368 0
-1365 -1369 0
-1365 -1370 0
-1365 -1371 0
-1365 -1372 0
-1365 -1373 0
-1365 -1374 0
-1365 -1375 0
-1365 -1376 0
-1366 -1367 0
-1366 -1368 0
-1366 -1369 0
-1366 -1370 0
-1366 -1371 0
-1366 -1372 0
-1366 -1373 0
-1366 -1374 0
-1366 -1375 0
-1366 -1376 0
-1367 -1368 0
-1367 -1369 0
-1367 -1370 0
-1367 -1371 0
-1367 -1372 0
-1367 -1373 0
-1367 -1374 0
-1367 -1375 0
-1367 -1376 0
-1368 -1369 0
-1368 -1370 0
-1368 -1371 0
-1368 -1372 0
-1368 -1373 0
-1368 -1374 0
-1368 -1375 0
-1368 -1376 0
-1369 -1370 0
-1369 -1371 0
-1369 -1372 0
-1369 -1373 0
-1369 -1374 0
-1369 -1375 0
-1369 -1376 0
-1370 -1371 0
-1370 -1372 0
-1370 -1373 0
-1370 -1374 0
-1370 -1375 0
-1370 -1376 0
-1371 -1372 0
-1371 -1373 0
-1371 -1374 0
-1371 -1375 0
-1371 -1376 0
-1372 -1373 0
-1372 -1374 0
-1372 -1375 0
-1372 -1376 0
-1373 -1374 0
-1373 -1375 0
-1373 -1376 0
-1374 -1375 0
-1374 -1376 0
-1375 -1376 0
1377 1378 1379 1380 1381 1382 1383 1384 1385 1386 1387 1388 1389 1390 1391 1392 0
-1377 -1378 0
-1377 -1379 0
-1377 -1380 0
-1377 -1381 0
-1377 -1382 0
-1377 -1383 0
-1377 -1384 0
-1377 -1385 0
-1377 -1386 0
-1377 -1387 0
-1377 -1388 0
-1377 -1389 0
-1377 -1390 0
-1377 -1391 0
-1377 -1392 0
-1378 -1379 0
-1378 -1380 0
-1378 -1381 0
-1378 -1382 0
-1378 -1383 0
-1378 -1384 0
-1378 -1385 0
-1378 -1386 0
-1378 -1387 0
-1378 -1388 0
-1378 -1389 0
-1378 -1390 0
-1378 -1391 0
-1378 -1392 0
-1379 -1380 0
-1379 -1381 0
-1379 -1382 0
-1379 -1383 0
-1379 -1384 0
-1379 -1385 0
-1379 -1386 0
-1379 -1387 0
-1379 -1388 0
-1379 -1389 0
-1379 -1390 0
-1379 -1391 0
-1379 -1392 0
-1380 -1381 0
-1380 -1382 0
-1380 -1383 0
-1380 -1384 0
-1380 -1385 0
-1380 -1386 0
-1380 -1387 0
-1380 -1388 0
-1380 -1389 0
-1380 -1390 0
-1380 -1391 0
-1380 -1392 0
-1381 -1382 0
-1381 -1383 0
-1381 -1384 0
-1381 -1385 0
-1381 -1386 0
-1381 -1387 0
-1381 -1388 0
-1381 -1389 0
-1381 -1390 0
-1381 -1391 0
-1381 -1392 0
-1382 -1383 0
-1382 -1384 0
-1382 -1385 0
-1382 -1386 0
-1382 -1387 0
-1382 -1388 0
-1382 -1389 0
-1382 -1390 0
-1382 -1391 0
-1382 -1392 0
-1383 -1384 0
-1383 -1385 0
-1383 -1386 0
-1383 -1387 0
-1383 -1388 0
-1383 -1389 0
-1383 -1390 0
-1383 -1391 0
-1383 -1392 0
-1384 -1385 0
-1384 -1386 0
-1384 -1387 0
-1384 -1388 0
-1384 -1389 0
-1384 -1390 0
-1384 -1391 0
-1384 -1392 0
-1385 -1386 0
-1385 -1387 0
-1385 -1388 0
-1385 -1389 0
-1385 -1390 0
-1385 -1391 0
-1385 -1392 0
-1386 -1387 0
-1386 -1388 0
-1386 -1389 0
-1386 -1390 0
-1386 -1391 0
-1386 -1392 0
-1387 -1388 0
-1387 -1389 0
-1387 -1390 0
-1387 -1391 0
-1387 -1392 0
-1388 -1389 0
-1388 -1390 0
-1388 -1391 0
-1388 -1392 0
-1389 -1390 0
-1389 -1391 0
-1389 -1392 0
-1390 -1391 0
-1390 -1392 0
-1391 -1392 0
1393 1394 1395 1396 1397 1398 1399 1400 1401 1402 1403 1404 1405 1406 1407 1408 0
-1393 -1394 0
-1393 -1395 0
-1393 -1396 0
-1393 -1397 0
-1393 -1398 0
-1393 -1399 0
-1393 -1400 0
-1393 -1401 0
-1393 -1402 0
-1393 -1403 0
-1393 -1404 0
-1393 -1405 0
-1393 -1406 0
-1393 -1407 0
-1393 -1408 0
-1394 -1395 0
-1394 -1396 0
-1394 -1397 0
-1394 -1398 0
-1394 -1399 0
-1394 -1400 0
-1394 -1401 0
-1394 -1402 0
-1394 -1403 0
-1394 -1404 0
-1394 -1405 0
-1394 -1406 0
-1394 -1407 0
-1394 -1408 0
-1395 -1396 0
-1395 -1397 0
-1395 -1398 0
-1395 -1399 0
-1395 -1400 0
-1395 -1401 0
-1395 -1402 0
-1395 -1403 0
-1395 -1404 0
-1395 -1405 0
-1395 -1406 0
-1395 -1407 0
-1395 -1408 0
-1396 -1397 0
-1396 -1398 0
-1396 -1399 0
-1396 -1400 0
-1396 -1401 0
-1396 -1402 0
-1396 -1403 0
-1396 -1404 0
-1396 -1405 0
-1396 -1406 0
-1396 -1407 0
-1396 -1408 0
-1397 -1398 0
-1397 -1399 0
-1397 -1400 0
-1397 -1401 0
-1397 -1402 0
-1397 -1403 0
-1397 -1404 0
-1397 -1405 0
-1397 -1406 0
-1397 -1407 0
-1397 -1408 0
-1398 -1399 0
-1398 -1400 0
-1398 -1401 0
-1398 -1402 0
-1398 -1403 0
-1398 -1404 0
-1398 -1405 0
-1398 -1406 0
-1398 -1407 0
-1398 -1408 0
-1399 -1400 0
-1399 -1401 0
-1399 -1402 0
-1399 -1403 0
-1399 -1404 0
-1399 -1405 0
-1399 -1406 0
-1399 -1407 0
-1399 -1408 0
-1400 -1401 0
-1400 -1402 0
-1400 -1403 0
-1400 -1404 0
-1400 -1405 0
-1400 -1406 0
-1400 -1407 0
-1400 -1408 0
-1401 -1402 0
-1401 -1403 0
-1401 -1404 0
-1401 -1405 0
-1401 -1406 0
-1401 -1407 0
-1401 -1408 0
-1402 -1403 0
-1402 -1404 0
-1402 -1405 0
-1402 -1406 0
-1402 -1407 0
-1402 -1408 0
-1403 -1404 0
-1403 -1405 0
-1403 -1406 0
-1403 -1407 0
-1403 -1408 0
-1404 -1405 0
-1404 -1406 0
-1404 -1407 0
-1404 -1408 0
-1405 -1406 0
-1405 -1407 0
-1405 -1408 0
-1406 -1407 0
-1406 -1408 0
-1407 -1408 0
1409 1410 1411 1412 1413 1414 1415 1416 1417 1418 1419 1420 1421 1422 1423 1424 0
-1409 -1410 0
-1409 -1411 0
-1409 -1412 0
-1409 -1413 0
-1409 -1414 0
-1409 -1415 0
-1409 -1416 0
-1409 -1417 0
-1409 -1418 0
-1409 -1419 0
-1409 -1420 0
-1409 -1421 0
-1409 -1422 0
-1409 -1423 0
-1409 -1424 0
-1410 -1411 0
-1410 -1412 0
-1410 -1413 0
-1410 -1414 0
-1410 -1415 0
-1410 -1416 0
-1410 -1417 0
-1410 -1418 0
-1410 -1419 0
-1410 -1420 0
-1410 -1421 0
-1410 -1422 0
-1410 -1423 0
-1410 -1424 0
-1411 -1412 0
-1411 -1413 0
-1411 -1414 0
-1411 -1415 0
-1411 -1416 0
-1411 -1417 0
-1411 -1418 0
-1411 -1419 0
-1411 -1420 0
-1411 -1421 0
-1411 -1422 0
-1411 -1423 0
-1411 -1424 0
-1412 -1413 0
-1412 -1414 0
-1412 -1415 0
-1412 -1416 0
-1412 -1417 0
-1412 -1418 0
-1412 -1419 0
-1412 -1420 0
-1412 -1421 0
-1412 -1422 0
-1412 -1423 0
-1412 -1424 0
-1413 -1414 0
-1413 -1415 0
-1413 -1416 0
-1413 -1417 0
-1413 -1418 0
-1413 -1419 0
-1413 -1420 0
-1413 -1421 0
-1413 -1422 0
-1413 -1423 0
-1413 -1424 0
-1414 -1415 0
-1414 -1416 0
-1414 -1417 0
-1414 -1418 0
-1414 -1419 0
-1414 -1420 0
-1414 -1421 0
-1414 -1422 0
-1414 -1423 0
-1414 -1424 0
-1415 -1416 0
-1415 -1417 0
-1415 -1418 0
-1415 -1419 0
-1415 -1420 0
-1415 -1421 0
-1415 -1422 0
-1415 -1423 0
-1415 -1424 0
-1416 -1417 0
-1416 -1418 0
-1416 -1419 0
-1416 -1420 0
-1416 -1421 0
-1416 -1422 0
-1416 -1423 0
-1416 -1424 0
-1417 -1418 0
-1417 -1419 0
-1417 -1420 0
-1417 -1421 0
-1417 -1422 0
-1417 -1423 0
-1417 -1424 0
-1418 -1419 0
-1418 -1420 0
-1418 -1421 0
-1418 -1422 0
-1418 -1423 0
-1418 -1424 0
-1419 -1420 0
-1419 -1421 0
-1419 -1422 0
-1419 -1423 0
-1419 -1424 0
-1420 -1421 0
-1420 -1422 0
-1420 -1423 0
-1420 -1424 0
-1421 -1422 0
-1421 -1423 0
-1421 -1424 0
-1422 -1423 0
-1422 -1424 0
-1423 -1424 0
1425 1426 1427 1428 1429 1430 1431 1432 1433 1434 1435 1436 1437 1438 1439 1440 0
-1425 -1426 0
-1425 -1427 0
-1425 -1428 0
-1425 -1429 0
-1425 -1430 0
-1425 -1431 0
-1425 -1432 0
-1425 -1433 0
-1425 -1434 0
-1425 -1435 0
-1425 -1436 0
-1425 -1437 0
-1425 -1438 0
-1425 -1439 0
-1425 -1440 0
-1426 -1427 0
-1426 -1428 0
-1426 -1429 0
-1426 -1430 0
-1426 -1431 0
-1426 -1432 0
-1426 -1433 0
-1426 -1434 0
-1426 -1435 0
-1426 -1436 0
-1426 -1437 0
-1426 -1438 0
-1426 -1439 0
-1426 -1440 0
-1427 -1428 0
-1427 -1429 0
-1427 -1430 0
-1427 -1431 0
-1427 -1432 0
-1427 -1433 0
-1427 -1434 0
-1427 -1435 0
-1427 -1436 0
-1427 -1437 0
-1427 -1438 0
-1427 -1439 0
-1427 -1440 0
-1428 -1429 0
-1428 -1430 0
-1428 -1431 0
-1428 -1432 0
-1428 -1433 0
-1428 -1434 0
-1428 -1435 0
-1428 -1436 0
-1428 -1437 0
-1428 -1438 0
-1428 -1439 0
-1428 -1440 0
-1429 -1430 0
-1429 -1431 0
-1429 -1432 0
-1429 -1433 0
-1429 -1434 0
-1429 -1435 0
-1429 -1436 0
-1429 -1437 0
-1429 -1438 0
-1429 -1439 0
-1429 -1440 0
-1430 -1431 0
-1430 -1432 0
-1430 -1433 0
-1430 -1434 0
-1430 -1435 0
-1430 -1436 0
-1430 -1437 0
-1430 -1438 0
-1430 -1439 0
-1430 -1440 0
-1431 -1432 0
-1431 -1433 0
-1431 -1434 0
-1431 -1435 0
-1431 -1436 0
-1431 -1437 0
-1431 -1438 0
-1431 -1439 0
-1431 -1440 0
-1432 -1433 0
-1432 -1434 0
-1432 -1435 0
-1432 -1436 0
-1432 -1437 0
-1432 -1438 0
-1432 -1439 0
-1432 -1440 0
-1433 -1434 0
-1433 -1435 0
-1433 -1436 0
-1433 -1437 0
-1433 -1438 0
-1433 -1439 0
-1433 -1440 0
-1434 -1435 0
-1434 -1436 0
-1434 -1437 0
-1434 -1438 0
-1434 -1439 0
-1434 -1440 0
-1435 -1436 0
-1435 -1437 0
-1435 -1438 0
-1435 -1439 0
-1435 -1440 0
-1436 -1437 0
-1436 -1438 0
-1436 -1439 0
-1436 -1440 0
-1437 -1438 0
-1437 -1439 0
-1437 -1440 0
-1438 -1439 0
-1438 -1440 0
-1439 -1440 0
1441 1442 1443 1444 1445 1446 1447 1448 1449 1450 1451 1452 1453 1454 1455 1456 0
-1441 -1442 0
-1441 -1443 0
-1441 -1444 0
-1441 -1445 0
-1441 -1446 0
-1441 -1447 0
-1441 -1448 0
-1441 -1449 0
-1441 -1450 0
-1441 -1451 0
-1441 -1452 0
-1441 -1453 0
-1441 -1454 0
-1441 -1455 0
-1441 -1456 0
-1442 -1443 0
-1442 -1444 0
-1442 -1445 0
-1442 -1446 0
-1442 -1447 0
-1442 -1448 0
-1442 -1449 0
-1442 -1450 0
-1442 -1451 0
-1442 -1452 0
-1442 -1453 0
-1442 -1454 0
-1442 -1455 0
-1442 -1456 0
-1443 -1444 0
-1443 -1445 0
-1443 -1446 0
-1443 -1447 0
-1443 -1448 0
-1443 -1449 0
-1443 -1450 0
-1443 -1451 0
-1443 -1452 0
-1443 -1453 0
-1443 -1454 0
-1443 -1455 0
-1443 -1456 0
-1444 -1445 0
-1444 -1446 0
-1444 -1447 0
-1444 -1448 0
-1444 -1449 0
-1444 -1450 0
-1444 -1451 0
-1444 -1452 0
-1444 -1453 0
-1444 -1454 0
-1444 -1455 0
-1444 -1456 0
-1445 -1446 0
-1445 -1447 0
-1445 -1448 0
-1445 -1449 0
-1445 -1450 0
-1445 -1451 0
-1445 -1452 0
-1445 -1453 0
-1445 -1454 0
-1445 -1455 0
-1445 -1456 0
-1446 -1447 0
-1446 -1448 0
-1446 -1449 0
-1446 -1450 0
-1446 -1451 0
-1446 -1452 0
-1446 -1453 0
-1446 -1454 0
-1446 -1455 0
-1446 -1456 0
-1447 -1448 0
-1447 -1449 0
-1447 -1450 0
-1447 -1451 0
-1447 -1452 0
-1447 -1453 0
-1447 -1454 0
-1447 -1455 0
-1447 -1456 0
-1448 -1449 0
-1448 -1450 0
-1448 -1451 0
-1448 -1452 0
-1448 -1453 0
-1448 -1454 0
-1448 -1455 0
-1448 -1456 0
-1449 -1450 0
-1449 -1451 0
-1449 -1452 0
-1449 -1453 0
-1449 -1454 0
-1449 -1455 0
-1449 -1456 0
-1450 -1451 0
-1450 -1452 0
-1450 -1453 0
-1450 -1454 0
-1450 -1455 0
-1450 -1456 0
-1451 -1452 0
-1451 -1453 0
-1451 -1454 0
-1451 -1455 0
-1451 -1456 0
-1452 -1453 0
-1452 -1454 0
-1452 -1455 0
-1452 -1456 0
-1453 -1454 0
-1453 -1455 0
-1453 -1456 0
-1454 -1455 0
-1454 -1456 0
-1455 -1456 0
1457 1458 1459 1460 1461 1462 1463 1464 1465 1466 1467 1468 1469 1470 1471 1472 0
-1457 -1458 0
-1457 -1459 0
-1457 -1460 0
-1457 -1461 0
-1457 -1462 0
-1457 -1463 0
-1457 -1464 0
-1457 -1465 0
-1457 -1466 0
-1457 -1467 0
-1457 -1468 0
-1457 -1469 0
-1457 -1470 0
-1457 -1471 0
-1457 -1472 0
-1458 -1459 0
-1458 -1460 0
-1458 -1461 0
-1458 -1462 0
-1458 -1463 0
-1458 -1464 0
-1458 -1465 0
-1458 -1466 0
-1458 -1467 0
-1458 -1468 0
-1458 -1469 0
-1458 -1470 0
-1458 -1471 0
-1458 -1472 0
-1459 -1460 0
-1459 -1461 0
-1459 -1462 0
-1459 -1463 0
-1459 -1464 0
-1459 -1465 0
-1459 -1466 0
-1459 -1467 0
-1459 -1468 0
-1459 -1469 0
-1459 -1470 0
-1459 -1471 0
-1459 -1472 0
-1460 -1461 0
-1460 -1462 0
-1460 -1463 0
-1460 -1464 0
-1460 -1465 0
-1460 -1466 0
-1460 -1467 0
-1460 -1468 0
-1460 -1469 0
-1460 -1470 0
-1460 -1471 0
-1460 -1472 0
-1461 -1462 0
-1461 -1463 0
-1461 -1464 0
-1461 -1465 0
-1461 -1466 0
-1461 -1467 0
-1461 -1468 0
-1461 -1469 0
-1461 -1470 0
-1461 -1471 0
-1461 -1472 0
-1462 -1463 0
-1462 -1464 0
-1462 -1465 0
-1462 -1466 0
-1462 -1467 0
-1462 -1468 0
-1462 -1469 0
-1462 -1470 0
-1462 -1471 0
-1462 -1472 0
-1463 -1464 0
-1463 -1465 0
-1463 -1466 0
-1463 -1467 0
-1463 -1468 0
-1463 -1469 0
-1463 -1470 0
-1463 -1471 0
-1463 -1472 0
-1464 -1465 0
-1464 -1466 0
-1464 -1467 0
-1464 -1468 0
-1464 -1469 0
-1464 -1470 0
-1464 -1471 0
-1464 -1472 0
-1465 -1466 0
-1465 -1467 0
-1465 -1468 0
-1465 -1469 0
-1465 -1470 0
-1465 -1471 0
-1465 -1472 0
-1466 -1467 0
-1466 -1468 0
-1466 -1469 0
-1466 -1470 0
-1466 -1471 0
-1466 -1472 0
-1467 -1468 0
-1467 -1469 0
-1467 -1470 0
-1467 -1471 0
-1467 -1472 0
-1468 -1469 0
-1468 -1470 0
-1468 -1471 0
-1468 -1472 0
-1469 -1470 0
-1469 -1471 0
-1469 -1472 0
-1470 -1471 0
-1470 -1472 0
-1471 -1472 0
1473 1474 1475 1476 1477 1478 1479 1480 1481 1482 1483 1484 1485 1486 1487 1488 0
-1473 -1474 0
-1473 -1475 0
-1473 -1476 0
-1473 -1477 0
-1473 -1478 0
-1473 -1479 0
-1473 -1480 0
-1473 -1481 0
-1473 -1482 0
-1473 -1483 0
-1473 -1484 0
-1473 -1485 0
-1473 -1486 0
-1473 -1487 0
-1473 -1488 0
-1474 -1475 0
-1474 -1476 0
-1474 -1477 0
-1474 -1478 0
-1474 -1479 0
-1474 -1480 0
-1474 -1481 0
-1474 -1482 0
-1474 -1483 0
-1474 -1484 0
-1474 -1485 0
-1474 -1486 0
-1474 -1487 0
-1474 -1488 0
-1475 -1476 0
-1475 -1477 0
-1475 -1478 0
-1475 -1479 0
-1475 -1480 0
-1475 -1481 0
-1475 -1482 0
-1475 -1483 0
-1475 -1484 0
-1475 -1485 0
-1475 -1486 0
-1475 -1487 0
-1475 -1488 0
-1476 -1477 0
-1476 -1478 0
-1476 -1479 0
-1476 -1480 0
-1476 -1481 0
-1476 -1482 0
-1476 -1483 0
-1476 -1484 0
-1476 -1485 0
-1476 -1486 0
-1476 -1487 0
-1476 -1488 0
-1477 -1478 0
-1477 -1479 0
-1477 -1480 0
-1477 -1481 0
-1477 -1482 0
-1477 -1483 0
-1477 -1484 0
-1477 -1485 0
-1477 -1486 0
-1477 -1487 0
-1477 -1488 0
-1478 -1479 0
-1478 -1480 0
-1478 -1481 0
-1478 -1482 0
-1478 -1483 0
-1478 -1484 0
-1478 -1485 0
-1478 -1486 0
-1478 -1487 0
-1478 -1488 0
-1479 -1480 0
-1479 -1481 0
-1479 -1482 0
-1479 -1483 0
-1479 -1484 0
-1479 -1485 0
-1479 -1486 0
-1479 -1487 0
-1479 -1488 0
-1480 -1481 0
-1480 -1482 0
-1480 -1483 0
-1480 -1484 0
-1480 -1485 0
-1480 -1486 0
-1480 -1487 0
-1480 -1488 0
-1481 -1482 0
-1481 -1483 0
-1481 -1484 0
-1481 -1485 0
-1481 -1486 0
-1481 -1487 0
-1481 -1488 0
-1482 -1483 0
-1482 -1484 0
-1482 -1485 0
-1482 -1486 0
-1482 -1487 0
-1482 -1488 0
-1483 -1484 0
-1483 -1485 0
-1483 -1486 0
-1483 -1487 0
-1483 -1488 0
-1484 -1485 0
-1484 -1486 0
-1484 -1487 0
-1484 -1488 0
-1485 -1486 0
-1485 -1487 0
-1485 -1488 0
-1486 -1487 0
-1486 -1488 0
-1487 -1488 0
1489 1490 1491 1492 1493 1494 1495 1496 1497 1498 1499 1500 1501 1502 1503 1504 0
-1489 -1490 0
-1489 -1491 0
-1489 -1492 0
-1489 -1493 0
-1489 -1494 0
-1489 -1495 0
-1489 -1496 0
-1489 -1497 0
-1489 -1498 0
-1489 -1499 0
-1489 -1500 0
-1489 -1501 0
-1489 -1502 0
-1489 -1503 0
-1489 -1504 0
-1490 -1491 0
-1490 -1492 0
-1490 -1493 0
-1490 -1494 0
-1490 -1495 0
-1490 -1496 0
-1490 -1497 0
-1490 -1498 0
-1490 -1499 0
-1490 -1500 0
-1490 -1501 0
-1490 -1502 0
-1490 -1503 0
-1490 -1504 0
-1491 -1492 0
-1491 -1493 0
-1491 -1494 0
-1491 -1495 0
-1491 -1496 0
-1491 -1497 0
-1491 -1498 0
-1491 -1499 0
-1491 -1500 0
-1491 -1501 0
-1491 -1502 0
-1491 -1503 0
-1491 -1504 0
-1492 -1493 0
-1492 -1494 0
-1492 -1495 0
-1492 -1496 0
-1492 -1497 0
-1492 -1498 0
-1492 -1499 0
-1492 -1500 0
-1492 -1501 0
-1492 -1502 0
-1492 -1503 0
-1492 -1504 0
-1493 -1494 0
-1493 -1495 0
-1493 -1496 0
-1493 -1497 0
-1493 -1498 0
-1493 -1499 0
-1493 -1500 0
-1493 -1501 0
-1493 -1502 0
-1493 -1503 0
-1493 -1504 0
-1494 -1495 0
-1494 -1496 0
-1494 -1497 0
-1494 -1498 0
-1494 -1499 0
-1494 -1500 0
-1494 -1501 0
-1494 -1502 0
-1494 -1503 0
-1494 -1504 0
-1495 -1496 0
-1495 -1497 0
-1495 -1498 0
-1495 -1499 0
-1495 -1500 0
-1495 -1501 0
-1495 -1502 0
-1495 -1503 0
-1495 -1504 0
-1496 -1497 0
-1496 -1498 0
-1496 -1499 0
-1496 -1500 0
-1496 -1501 0
-1496 -1502 0
-1496 -1503 0
-1496 -1504 0
-1497 -1498 0
-1497 -1499 0
-1497 -1500 0
-1497 -1501 0
-1497 -1502 0
-1497 -1503 0
-1497 -1504 0
-1498 -1499 0
-1498 -1500 0
-1498 -1501 0
-1498 -1502 0
-1498 -1503 0
-1498 -1504 0
-1499 -1500 0
-1499 -1501 0
-1499 -1502 0
-1499 -1503 0
-1499 -1504 0
-1500 -1501 0
-1500 -1502 0
-1500 -1503 0
-1500 -1504 0
-1501 -1502 0
-1501 -1503 0
-1501 -1504 0
-1502 -1503 0
-1502 -1504 0
-1503 -1504 0
1505 1506 1507 1508 1509 1510 1511 1512 1513 1514 1515 1516 1517 1518 1519 1520 0
-1505 -1506 0
-1505 -1507 0
-1505 -1508 0
-1505 -1509 0
-1505 -1510 0
-1505 -1511 0
-1505 -1512 0
-1505 -1513 0
-1505 -1514 0
-1505 -1515 0
-1505 -1516 0
-1505 -1517 0
-1505 -1518 0
-1505 -1519 0
-1505 -1520 0
-1506 -1507 0
-1506 -1508 0
-1506 -1509 0
-1506 -1510 0
-1506 -1511 0
-1506 -1512 0
-1506 -1513 0
-1506 -1514 0
-1506 -1515 0
-1506 -1516 0
-1506 -1517 0
-1506 -1518 0
-1506 -1519 0
-1506 -1520 0
-1507 -1508 0
-1507 -1509 0
-1507 -1510 0
-1507 -1511 0
-1507 -1512 0
-1507 -1513 0
-1507 -1514 0
-1507 -1515 0
-1507 -1516 0
-1507 -1517 0
-1507 -1518 0
-1507 -1519 0
-1507 -1520 0
-1508 -1509 0
-1508 -1510 0
-1508 -1511 0
-1508 -1512 0
-1508 -1513 0
-1508 -1514 0
-1508 -1515 0
-1508 -1516 0
-1508 -1517 0
-1508 -1518 0
-1508 -1519 0
-1508 -1520 0
-1509 -1510 0
-1509 -1511 0
-1509 -1512 0
-1509 -1513 0
-1509 -1514 0
-1509 -1515 0
-1509 -1516 0
-1509 -1517 0
-1509 -1518 0
-1509 -1519 0
-1509 -1520 0
-1510 -1511 0
-1510 -1512 0
-1510 -1513 0
-1510 -1514 0
-1510 -1515 0
-1510 -1516 0
-1510 -1517 0
-1510 -1518 0
-1510 -1519 0
-1510 -1520 0
-1511 -1512 0
-1511 -1513 0
-1511 -1514 0
-1511 -1515 0
-1511 -1516 0
-1511 -1517 0
-1511 -1518 0
-1511 -1519 0
-1511 -1520 0
-1512 -1513 0
-1512 -1514 0
-1512 -1515 0
-1512 -1516 0
-1512 -1517 0
-1512 -1518 0
-1512 -1519 0
-1512 -1520 0
-1513 -1514 0
-1513 -1515 0
-1513 -1516 0
-1513 -1517 0
-1513 -1518 0
-1513 -1519 0
-1513 -1520 0
-1514 -1515 0
-1514 -1516 0
-1514 -1517 0
-1514 -1518 0
-1514 -1519 0
-1514 -1520 0
-1515 -1516 0
-1515 -1517 0
-1515 -1518 0
-1515 -1519 0
-1515 -1520 0
-1516 -1517 0
-1516 -1518 0
-1516 -1519 0
-1516 -1520 0
-1517 -1518 0
-1517 -1519 0
-1517 -1520 0
-1518 -1519 0
-1518 -1520 0
-1519 -1520 0
1521 1522 1523 1524 1525 1526 1527 1528 1529 1530 1531 1532 1533 1534 1535 1536 0
-1521 -1522 0
-1521 -1523 0
-1521 -1524 0
-1521 -1525 0
-1521 -1526 0
-1521 -1527 0
-1521 -1528 0
-1521 -1529 0
-1521 -1530 0
-1521 -1531 0
-1521 -1532 0
-1521 -1533 0
-1521 -1534 0
-1521 -1535 0
-1521 -1536 0
-1522 -1523 0
-1522 -1524 0
-1522 -1525 0
-1522 -1526 0
-1522 -1527 0
-1522 -1528 0
-1522 -1529 0
-1522 -1530 0
-1522 -1531 0
-1522 -1532 0
-1522 -1533 0
-1522 -1534 0
-1522 -1535 0
-1522 -1536 0
-1523 -1524 0
-1523 -1525 0
-1523 -1526 0
-1523 -1527 0
-1523 -1528 0
-1523 -1529 0
-1523 -1530 0
-1523 -1531 0
-1523 -1532 0
-1523 -1533 0
-1523 -1534 0
-1523 -1535 0
-1523 -1536 0
-1524 -1525 0
-1524 -1526 0
-1524 -1527 0
-1524 -1528 0
-1524 -1529 0
-1524 -1530 0
-1524 -1531 0
-1524 -1532 0
-1524 -1533 0
-1524 -1534 0
-1524 -1535 0
-1524 -1536 0
-1525 -1526 0
-1525 -1527 0
-1525 -1528 0
-1525 -1529 0
-1525 -1530 0
-1525 -1531 0
-1525 -1532 0
-1525 -1533 0
-1525 -1534 0
-1525 -1535 0
-1525 -1536 0
-1526 -1527 0
-1526 -1528 0
-1526 -1529 0
-1526 -1530 0
-1526 -1531 0
-1526 -1532 0
-1526 -1533 0
-1526 -1534 0
-1526 -1535 0
-1526 -1536 0
-1527 -1528 0
-1527 -1529 0
-1527 -1530 0
-1527 -1531 0
-1527 -1532 0
-1527 -1533 0
-1527 -1534 0
-1527 -1535 0
-1527 -1536 0
-1528 -1529 0
-1528 -1530 0
-1528 -1531 0
-1528 -1532 0
-1528 -1533 0
-1528 -1534 0
-1528 -1535 0
-1528 -1536 0
-1529 -1530 0
-1529 -1531 0
-1529 -1532 0
-1529 -1533 0
-1529 -1534 0
-1529 -1535 0
-1529 -1536 0
-1530 -1531 0
-1530 -1532 0
-1530 -1533 0
-1530 -1534 0
-1530 -1535 0
-1530 -1536 0
-1531 -1532 0
-1531 -1533 0
-1531 -1534 0
-1531 -1535 0
-1531 -1536 0
-1532 -1533 0
-1532 -1534 0
-1532 -1535 0
-1532 -1536 0
-1533 -1534 0
-1533 -1535 0
-1533 -1536 0
-1534 -1535 0
-1534 -1536 0
-1535 -1536 0
1537 1538 1539 1540 1541 1542 1543 1544 1545 1546 1547 1548 1549 1550 1551 1552 0
-1537 -1538 0
-1537 -1539 0
-1537 -1540 0
-1537 -1541 0
-1537 -1542 0
-1537 -1543 0
-1537 -1544 0
-1537 -1545 0
-1537 -1546 0
-1537 -1547 0
-1537 -1548 0
-1537 -1549 0
-1537 -1550 0
-1537 -1551 0
-1537 -1552 0
-1538 -1539 0
-1538 -1540 0
-1538 -1541 0
-1538 -1542 0
-1538 -1543 0
-1538 -1544 0
-1538 -1545 0
-1538 -1546 0
-1538 -1547 0
-1538 -1548 0
-1538 -1549 0
-1538 -1550 0
-1538 -1551 0
-1538 -1552 0
-1539 -1540 0
-1539 -1541 0
-1539 -1542 0
-1539 -1543 0
-1539 -1544 0
-1539 -1545 0
-1539 -1546 0
-1539 -1547 0
-1539 -1548 0
-1539 -1549 0
-1539 -1550 0
-1539 -1551 0
-1539 -1552 0
-1540 -1541 0
-1540 -1542 0
-1540 -1543 0
-1540 -1544 0
-1540 -1545 0
-1540 -1546 0
-1540 -1547 0
-1540 -1548 0
-1540 -1549 0
-1540 -1550 0
-1540 -1551 0
-1540 -1552 0
-1541 -1542 0
-1541 -1543 0
-1541 -1544 0
-1541 -1545 0
-1541 -1546 0
-1541 -1547 0
-1541 -1548 0
-1541 -1549 0
-1541 -1550 0
-1541 -1551 0
-1541 -1552 0
-1542 -1543 0
-1542 -1544 0
-1542 -1545 0
-1542 -1546 0
-1542 -1547 0
-1542 -1548 0
-1542 -1549 0
-1542 -1550 0
-1542 -1551 0
-1542 -1552 0
-1543 -1544 0
-1543 -1545 0
-1543 -1546 0
-1543 -1547 0
-1543 -1548 0
-1543 -1549 0
-1543 -1550 0
-1543 -1551 0
-1543 -1552 0
-1544 -1545 0
-1544 -1546 0
-1544 -1547 0
-1544 -1548 0
-1544 -1549 0
-1544 -1550 0
-1544 -1551 0
-1544 -1552 0
-1545 -1546 0
-1545 -1547 0
-1545 -1548 0
-1545 -1549 0
-1545 -1550 0
-1545 -1551 0
-1545 -1552 0
-1546 -1547 0
-1546 -1548 0
-1546 -1549 0
-1546 -1550 0
-1546 -1551 0
-1546 -1552 0
-1547 -1548 0
-1547 -1549 0
-1547 -1550 0
-1547 -1551 0
-1547 -1552 0
-1548 -1549 0
-1548 -1550 0
-1548 -1551 0
-1548 -1552 0
-1549 -1550 0
-1549 -1551 0
-1549 -1552 0
-1550 -1551 0
-1550 -1552 0
-1551 -1552 0
1553 1554 1555 1556 1557 1558 1559 1560 1561 1562 1563 1564 1565 1566 1567 1568 0
-1553 -1554 0
-1553 -1555 0
-1553 -1556 0
-1553 -1557 0
-1553 -1558 0
-1553 -1559 0
-1553 -1560 0
-1553 -1561 0
-1553 -1562 0
-1553 -1563 0
-1553 -1564 0
-1553 -1565 0
-1553 -1566 0
-1553 -1567 0
-1553 -1568 0
-1554 -1555 0
-1554 -1556 0
-1554 -1557 0
-1554 -1558 0
-1554 -1559 0
-1554 -1560 0
-1554 -1561 0
-1554 -1562 0
-1554 -1563 0
-1554 -1564 0
-1554 -1565 0
-1554 -1566 0
-1554 -1567 0
-1554 -1568 0
-1555 -1556 0
-1555 -1557 0
-1555 -1558 0
-1555 -1559 0
-1555 -1560 0
-1555 -1561 0
-1555 -1562 0
-1555 -1563 0
-1555 -1564 0
-1555 -1565 0
-1555 -1566 0
-1555 -1567 0
-1555 -1568 0
-1556 -1557 0
-1556 -1558 0
-1556 -1559 0
-1556 -1560 0
-1556 -1561 0
-1556 -1562 0
-1556 -1563 0
-1556 -1564 0
-1556 -1565 0
-1556 -1566 0
-1556 -1567 0
-1556 -1568 0
-1557 -1558 0
-1557 -1559 0
-1557 -1560 0
-1557 -1561 0
-1557 -1562 0
-1557 -1563 0
-1557 -1564 0
-1557 -1565 0
-1557 -1566 0
-1557 -1567 0
-1557 -1568 0
-1558 -1559 0
-1558 -1560 0
-1558 -1561 0
-1558 -1562 0
-1558 -1563 0
-1558 -1564 0
-1558 -1565 0
-1558 -1566 0
-1558 -1567 0
-1558 -1568 0
-1559 -1560 0
-1559 -1561 0
-1559 -1562 0
-1559 -1563 0
-1559 -1564 0
-1559 -1565 0
-1559 -1566 0
-1559 -1567 0
-1559 -1568 0
-1560 -1561 0
-1560 -1562 0
-1560 -1563 0
-1560 -1564 0
-1560 -1565 0
-1560 -1566 0
-1560 -1567 0
-1560 -1568 0
-1561 -1562 0
-1561 -1563 0
-1561 -1564 0
-1561 -1565 0
-1561 -1566 0
-1561 -1567 0
-1561 -1568 0
-1562 -1563 0
-1562 -1564 0
-1562 -1565 0
-1562 -1566 0
-1562 -1567 0
-1562 -1568 0
-1563 -1564 0
-1563 -1565 0
-1563 -1566 0
-1563 -1567 0
-1563 -1568 0
-1564 -1565 0
-1564 -1566 0
-1564 -1567 0
-1564 -1568 0
-1565 -1566 0
-1565 -1567 0
-1565 -1568 0
-1566 -1567 0
-1566 -1568 0
-1567 -1568 0
1569 1570 1571 1572 1573 1574 1575 1576 1577 1578 1579 1580 1581 1582 1583 1584 0
-1569 -1570 0
-1569 -1571 0
-1569 -1572 0
-1569 -1573 0
-1569 -1574 0
-1569 -1575 0
-1569 -1576 0
-1569 -1577 0
-1569 -1578 0
-1569 -1579 0
-1569 -1580 0
-1569 -1581 0
-1569 -1582 0
-1569 -1583 0
-1569 -1584 0
-1570 -1571 0
-1570 -1572 0
-1570 -1573 0
-1570 -1574 0
-1570 -1575 0
-1570 -1576 0
-1570 -1577 0
-1570 -1578 0
-1570 -1579 0
-1570 -1580 0
-1570 -1581 0
-1570 -1582 0
-1570 -1583 0
-1570 -1584 0
-1571 -1572 0
-1571 -1573 0
-1571 -1574 0
-1571 -1575 0
-1571 -1576 0
-1571 -1577 0
-1571 -1578 0
-1571 -1579 0
-1571 -1580 0
-1571 -1581 0
-1571 -1582 0
-1571 -1583 0
-1571 -1584 0
-1572 -1573 0
-1572 -1574 0
-1572 -1575 0
-1572 -1576 0
-1572 -1577 0
-1572 -1578 0
-1572 -1579 0
-1572 -1580 0
-1572 -1581 0
-1572 -1582 0
-1572 -1583 0
-1572 -1584 0
-1573 -1574 0
-1573 -1575 0
-1573 -1576 0
-1573 -1577 0
-1573 -1578 0
-1573 -1579 0
-1573 -1580 0
-1573 -1581 0
-1573 -1582 0
-1573 -1583 0
-1573 -1584 0
-1574 -1575 0
-1574 -1576 0
-1574 -1577 0
-1574 -1578 0
-1574 -1579 0
-1574 -1580 0
-1574 -1581 0
-1574 -1582 0
-1574 -1583 0
-1574 -1584 0
-1575 -1576 0
-1575 -1577 0
-1575 -1578 0
-1575 -1579 0
-1575 -1580 0
-1575 -1581 0
-1575 -1582 0
-1575 -1583 0
-1575 -1584 0
-1576 -1577 0
-1576 -1578 0
-1576 -1579 0
-1576 -1580 0
-1576 -1581 0
-1576 -1582 0
-1576 -1583 0
-1576 -1584 0
-1577 -1578 0
-1577 -1579 0
-1577 -1580 0
-1577 -1581 0
-1577 -1582 0
-1577 -1583 0
-1577 -1584 0
-1578 -1579 0
-1578 -1580 0
-1578 -1581 0
-1578 -1582 0
-1578 -1583 0
-1578 -1584 0
-1579 -1580 0
-1579 -1581 0
-1579 -1582 0
-1579 -1583 0
-1579 -1584 0
-1580 -1581 0
-1580 -1582 0
-1580 -1583 0
-1580 -1584 0
-1581 -1582 0
-1581 -1583 0
-1581 -1584 0
-1582 -1583 0
-1582 -1584 0
-1583 -1584 0
1585 1586 1587 1588 1589 1590 1591 1592 1593 1594 1595 1596 1597 1598 1599 1600 0
-1585 -1586 0
-1585 -1587 0
-1585 -1588 0
-1585 -1589 0
-1585 -1590 0
-1585 -1591 0
-1585 -1592 0
-1585 -1593 0
-1585 -1594 0
-1585 -1595 0
-1585 -1596 0
-1585 -1597 0
-1585 -1598 0
-1585 -1599 0
-1585 -1600 0
-1586 -1587 0
-1586 -1588 0
-1586 -1589 0
-1586 -1590 0
-1586 -1591 0
-1586 -1592 0
-1586 -1593 0
-1586 -1594 0
-1586 -1595 0
-1586 -1596 0
-1586 -1597 0
-1586 -1598 0
-1586 -1599 0
-1586 -1600 0
-1587 -1588 0
-1587 -1589 0
-1587 -1590 0
-1587 -1591 0
-1587 -1592 0
-1587 -1593 0
-1587 -1594 0
-1587 -1595 0
-1587 -1596 0
-1587 -1597 0
-1587 -1598 0
-1587 -1599 0
-1587 -1600 0
-1588 -1589 0
-1588 -1590 0
-1588 -1591 0
-1588 -1592 0
-1588 -1593 0
-1588 -1594 0
-1588 -1595 0
-1588 -1596 0
-1588 -1597 0
-1588 -1598 0
-1588 -1599 0
-1588 -1600 0
-1589 -1590 0
-1589 -1591 0
-1589 -1592 0
-1589 -1593 0
-1589 -1594 0
-1589 -1595 0
-1589 -1596 0
-1589 -1597 0
-1589 -1598 0
-1589 -1599 0
-1589 -1600 0
-1590 -1591 0
-1590 -1592 0
-1590 -1593 0
-1590 -1594 0
-1590 -1595 0
-1590 -1596 0
-1590 -1597 0
-1590 -1598 0
-1590 -1599 0
-1590 -1600 0
-1591 -1592 0
-1591 -1593 0
-1591 -1594 0
-1591 -1595 0
-1591 -1596 0
-1591 -1597 0
-1591 -1598 0
-1591 -1599 0
-1591 -1600 0
-1592 -1593 0
-1592 -1594 0
-1592 -1595 0
-1592 -1596 0
-1592 -1597 0
-1592 -1598 0
-1592 -1599 0
-1592 -1600 0
-1593 -1594 0
-1593 -1595 0
-1593 -1596 0
-1593 -1597 0
-1593 -1598 0
-1593 -1599 0
-1593 -1600 0
-1594 -1595 0
-1594 -1596 0
-1594 -1597 0
-1594 -1598 0
-1594 -1599 0
-1594 -1600 0
-1595 -1596 0
-1595 -1597 0
-1595 -1598 0
-1595 -1599 0
-1595 -1600 0
-1596 -1597 0
-1596 -1598 0
-1596 -1599 0
-1596 -1600 0
-1597 -1598 0
-1597 -1599 0
-1597 -1600 0
-1598 -1599 0
-1598 -1600 0
-1599 -1600 0
1601 1602 1603 1604 1605 1606 1607 1608 1609 1610 1611 1612 1613 1614 1615 1616 0
-1601 -1602 0
-1601 -1603 0
-1601 -1604 0
-1601 -1605 0
-1601 -1606 0
-1601 -1607 0
-1601 -1608 0
-1601 -1609 0
-1601 -1610 0
-1601 -1611 0
-1601 -1612 0
-1601 -1613 0
-1601 -1614 0
-1601 -1615 0
-1601 -1616 0
-1602 -1603 0
-1602 -1604 0
-1602 -1605 0
-1602 -1606 0
-1602 -1607 0
-1602 -1608 0
-1602 -1609 0
-1602 -1610 0
-1602 -1611 0
-1602 -1612 0
-1602 -1613 0
-1602 -1614 0
-1602 -1615 0
-1602 -1616 0
-1603 -1604 0
-1603 -1605 0
-1603 -1606 0
-1603 -1607 0
-1603 -1608 0
-1603 -1609 0
-1603 -1610 0
-1603 -1611 0
-1603 -1612 0
-1603 -1613 0
-1603 -1614 0
-1603 -1615 0
-1603 -1616 0
-1604 -1605 0
-1604 -1606 0
-1604 -1607 0
-1604 -1608 0
-1604 -1609 0
-1604 -1610 0
-1604 -1611 0
-1604 -1612 0
-1604 -1613 0
-1604 -1614 0
-1604 -1615 0
-1604 -1616 0
-1605 -1606 0
-1605 -1607 0
-1605 -1608 0
-1605 -1609 0
-1605 -1610 0
-1605 -1611 0
-1605 -1612 0
-1605 -1613 0
-1605 -1614 0
-1605 -1615 0
-1605 -1616 0
-1606 -1607 0
-1606 -1608 0
-1606 -1609 0
-1606 -1610 0
-1606 -1611 0
-1606 -1612 0
-1606 -1613 0
-1606 -1614 0
-1606 -1615 0
-1606 -1616 0
-1607 -1608 0
-1607 -1609 0
-1607 -1610 0
-1607 -1611 0
-1607 -1612 0
-1607 -1613 0
-1607 -1614 0
-1607 -1615 0
-1607 -1616 0
-1608 -1609 0
-1608 -1610 0
-1608 -1611 0
-1608 -1612 0
-1608 -1613 0
-1608 -1614 0
-1608 -1615 0
-1608 -1616 0
-1609 -1610 0
-1609 -1611 0
-1609 -1612 0
-1609 -1613 0
-1609 -1614 0
-1609 -1615 0
-1609 -1616 0
-1610 -1611 0
-1610 -1612 0
-1610 -1613 0
-1610 -1614 0
-1610 -1615 0
-1610 -1616 0
-1611 -1612 0
-1611 -1613 0
-1611 -1614 0
-1611 -1615 0
-1611 -1616 0
-1612 -1613 0
-1612 -1614 0
-1612 -1615 0
-1612 -1616 0
-1613 -1614 0
-1613 -1615 0
-1613 -1616 0
-1614 -1615 0
-1614 -1616 0
-1615 -1616 0
1617 1618 1619 1620 1621 1622 1623 1624 1625 1626 1627 1628 1629 1630 1631 1632 0
-1617 -1618 0
-1617 -1619 0
-1617 -1620 0
-1617 -1621 0
-1617 -1622 0
-1617 -1623 0
-1617 -1624 0
-1617 -1625 0
-1617 -1626 0
-1617 -1627 0
-1617 -1628 0
-1617 -1629 0
-1617 -1630 0
-1617 -1631 0
-1617 -1632 0
-1618 -1619 0
-1618 -1620 0
-1618 -1621 0
-1618 -1622 0
-1618 -1623 0
-1618 -1624 0
-1618 -1625 0
-1618 -1626 0
-1618 -1627 0
-1618 -1628 0
-1618 -1629 0
-1618 -1630 0
-1618 -1631 0
-1618 -1632 0
-1619 -1620 0
-1619 -1621 0
-1619 -1622 0
-1619 -1623 0
-1619 -1624 0
-1619 -1625 0
-1619 -1626 0
-1619 -1627 0
-1619 -1628 0
-1619 -1629 0
-1619 -1630 0
-1619 -1631 0
-1619 -1632 0
-1620 -1621 0
-1620 -1622 0
-1620 -1623 0
-1620 -1624 0
-1620 -1625 0
-1620 -1626 0
-1620 -1627 0
-1620 -1628 0
-1620 -1629 0
-1620 -1630 0
-1620 -1631 0
-1620 -1632 0
-1621 -1622 0
-1621 -1623 0
-1621 -1624 0
-1621 -1625 0
-1621 -1626 0
-1621 -1627 0
-1621 -1628 0
-1621 -1629 0
-1621 -1630 0
-1621 -1631 0
-1621 -1632 0
-1622 -1623 0
-1622 -1624 0
-1622 -1625 0
-1622 -1626 0
-1622 -1627 0
-1622 -1628 0
-1622 -1629 0
-1622 -1630 0
-1622 -1631 0
-1622 -1632 0
-1623 -1624 0
-1623 -1625 0
-1623 -1626 0
-1623 -1627 0
-1623 -1628 0
-1623 -1629 0
-1623 -1630 0
-1623 -1631 0
-1623 -1632 0
-1624 -1625 0
-1624 -1626 0
-1624 -1627 0
-1624 -1628 0
-1624 -1629 0
-1624 -1630 0
-1624 -1631 0
-1624 -1632 0
-1625 -1626 0
-1625 -1627 0
-1625 -1628 0
-1625 -1629 0
-1625 -1630 0
-1625 -1631 0
-1625 -1632 0
-1626 -1627 0
-1626 -1628 0
-1626 -1629 0
-1626 -1630 0
-1626 -1631 0
-1626 -1632 0
-1627 -1628 0
-1627 -1629 0
-1627 -1630 0
-1627 -1631 0
-1627 -1632 0
-1628 -1629 0
-1628 -1630 0
-1628 -1631 0
-1628 -1632 0
-1629 -1630 0
-1629 -1631 0
-1629 -1632 0
-1630 -1631 0
-1630 -1632 0
-1631 -1632 0
1633 1634 1635 1636 1637 1638 1639 1640 1641 1642 1643 1644 1645 1646 1647 1648 0
-1633 -1634 0
-1633 -1635 0
-1633 -1636 0
-1633 -1637 0
-1633 -1638 0
-1633 -1639 0
-1633 -1640 0
-1633 -1641 0
-1633 -1642 0
-1633 -1643 0
-1633 -1644 0
-1633 -1645 0
-1633 -1646 0
-1633 -1647 0
-1633 -1648 0
-1634 -1635 0
-1634 -1636 0
-1634 -1637 0
-1634 -1638 0
-1634 -1639 0
-1634 -1640 0
-1634 -1641 0
-1634 -1642 0
-1634 -1643 0
-1634 -1644 0
-1634 -1645 0
-1634 -1646 0
-1634 -1647 0
-1634 -1648 0
-1635 -1636 0
-1635 -1637 0
-1635 -1638 0
-1635 -1639 0
-1635 -1640 0
-1635 -1641 0
-1635 -1642 0
-1635 -1643 0
-1635 -1644 0
-1635 -1645 0
-1635 -1646 0
-1635 -1647 0
-1635 -1648 0
-1636 -1637 0
-1636 -1638 0
-1636 -1639 0
-1636 -1640 0
-1636 -1641 0
-1636 -1642 0
-1636 -1643 0
-1636 -1644 0
-1636 -1645 0
-1636 -1646 0
-1636 -1647 0
-1636 -1648 0
-1637 -1638 0
-1637 -1639 0
-1637 -1640 0
-1637 -1641 0
-1637 -1642 0
-1637 -1643 0
-1637 -1644 0
-1637 -1645 0
-1637 -1646 0
-1637 -1647 0
-1637 -1648 0
-1638 -1639 0
-1638 -1640 0
-1638 -1641 0
-1638 -1642 0
-1638 -1643 0
-1638 -1644 0
-1638 -1645 0
-1638 -1646 0
-1638 -1647 0
-1638 -1648 0
-1639 -1640 0
-1639 -1641 0
-1639 -1642 0
-1639 -1643 0
-1639 -1644 0
-1639 -1645 0
-1639 -1646 0
-1639 -1647 0
-1639 -1648 0
-1640 -1641 0
-1640 -1642 0
-1640 -1643 0
-1640 -1644 0
-1640 -1645 0
-1640 -1646 0
-1640 -1647 0
-1640 -1648 0
-1641 -1642 0
-1641 -1643 0
-1641 -1644 0
-1641 -1645 0
-1641 -1646 0
-1641 -1647 0
-1641 -1648 0
-1642 -1643 0
-1642 -1644 0
-1642 -1645 0
-1642 -1646 0
-1642 -1647 0
-1642 -1648 0
-1643 -1644 0
-1643 -1645 0
-1643 -1646 0
-1643 -1647 0
-1643 -1648 0
-1644 -1645 0
-1644 -1646 0
-1644 -1647 0
-1644 -1648 0
-1645 -1646 0
-1645 -1647 0
-1645 -1648 0
-1646 -1647 0
-1646 -1648 0
-1647 -1648 0
1649 1650 1651 1652 1653 1654 1655 1656 1657 1658 1659 1660 1661 1662 1663 1664 0
-1649 -1650 0
-1649 -1651 0
-1649 -1652 0
-1649 -1653 0
-1649 -1654 0
-1649 -1655 0
-1649 -1656 0
-1649 -1657 0
-1649 -1658 0
-1649 -1659 0
-1649 -1660 0
-1649 -1661 0
-1649 -1662 0
-1649 -1663 0
-1649 -1664 0
-1650 -1651 0
-1650 -1652 0
-1650 -1653 0
-1650 -1654 0
-1650 -1655 0
-1650 -1656 0
-1650 -1657 0
-1650 -1658 0
-1650 -1659 0
-1650 -1660 0
-1650 -1661 0
-1650 -1662 0
-1650 -1663 0
-1650 -1664 0
-1651 -1652 0
-1651 -1653 0
-1651 -1654 0
-1651 -1655 0
-1651 -1656 0
-1651 -1657 0
-1651 -1658 0
-1651 -1659 0
-1651 -1660 0
-1651 -1661 0
-1651 -1662 0
-1651 -1663 0
-1651 -1664 0
-1652 -1653 0
-1652 -1654 0
-1652 -1655 0
-1652 -1656 0
-1652 -1657 0
-1652 -1658 0
-1652 -1659 0
-1652 -1660 0
-1652 -1661 0
-1652 -1662 0
-1652 -1663 0
-1652 -1664 0
-1653 -1654 0
-1653 -1655 0
-1653 -1656 0
-1653 -1657 0
-1653 -1658 0
-1653 -1659 0
-1653 -1660 0
-1653 -1661 0
-1653 -1662 0
-1653 -1663 0
-1653 -1664 0
-1654 -1655 0
-1654 -1656 0
-1654 -1657 0
-1654 -1658 0
-1654 -1659 0
-1654 -1660 0
-1654 -1661 0
-1654 -1662 0
-1654 -1663 0
-1654 -1664 0
-1655 -1656 0
-1655 -1657 0
-1655 -1658 0
-1655 -1659 0
-1655 -1660 0
-1655 -1661 0
-1655 -1662 0
-1655 -1663 0
-1655 -1664 0
-1656 -1657 0
-1656 -1658 0
-1656 -1659 0
-1656 -1660 0
-1656 -1661 0
-1656 -1662 0
-1656 -1663 0
-1656 -1664 0
-1657 -1658 0
-1657 -1659 0
-1657 -1660 0
-1657 -1661 0
-1657 -1662 0
-1657 -1663 0
-1657 -1664 0
-1658 -1659 0
-1658 -1660 0
-1658 -1661 0
-1658 -1662 0
-1658 -1663 0
-1658 -1664 0
-1659 -1660 0
-1659 -1661 0
-1659 -1662 0
-1659 -1663 0
-1659 -1664 0
-1660 -1661 0
-1660 -1662 0
-1660 -1663 0
-1660 -1664 0
-1661 -1662 0
-1661 -1663 0
-1661 -1664 0
-1662 -1663 0
-1662 -1664 0
-1663 -1664 0
1665 1666 1667 1668 1669 1670 1671 1672 1673 1674 1675 1676 1677 1678 1679 1680 0
-1665 -1666 0
-1665 -1667 0
-1665 -1668 0
-1665 -1669 0
-1665 -1670 0
-1665 -1671 0
-1665 -1672 0
-1665 -1673 0
-1665 -1674 0
-1665 -1675 0
-1665 -1676 0
-1665 -1677 0
-1665 -1678 0
-1665 -1679 0
-1665 -1680 0
-1666 -1667 0
-1666 -1668 0
-1666 -1669 0
-1666 -1670 0
-1666 -1671 0
-1666 -1672 0
-1666 -1673 0
-1666 -1674 0
-1666 -1675 0
-1666 -1676 0
-1666 -1677 0
-1666 -1678 0
-1666 -1679 0
-1666 -1680 0
-1667 -1668 0
-1667 -1669 0
-1667 -1670 0
-1667 -1671 0
-1667 -1672 0
-1667 -1673 0
-1667 -1674 0
-1667 -1675 0
-1667 -1676 0
-1667 -1677 0
-1667 -1678 0
-1667 -1679 0
-1667 -1680 0
-1668 -1669 0
-1668 -1670 0
-1668 -1671 0
-1668 -1672 0
-1668 -1673 0
-1668 -1674 0
-1668 -1675 0
-1668 -1676 0
-1668 -1677 0
-1668 -1678 0
-1668 -1679 0
-1668 -1680 0
-1669 -1670 0
-1669 -1671 0
-1669 -1672 0
-1669 -1673 0
-1669 -1674 0
-1669 -1675 0
-1669 -1676 0
-1669 -1677 0
-1669 -1678 0
-1669 -1679 0
-1669 -1680 0
-1670 -1671 0
-1670 -1672 0
-1670 -1673 0
-1670 -1674 0
-1670 -1675 0
-1670 -1676 0
-1670 -1677 0
-1670 -1678 0
-1670 -1679 0
-1670 -1680 0
-1671 -1672 0
-1671 -1673 0
-1671 -1674 0
-1671 -1675 0
-1671 -1676 0
-1671 -1677 0
-1671 -1678 0
-1671 -1679 0
-1671 -1680 0
-1672 -1673 0
-1672 -1674 0
-1672 -1675 0
-1672 -1676 0
-1672 -1677 0
-1672 -1678 0
-1672 -1679 0
-1672 -1680 0
-1673 -1674 0
-1673 -1675 0
-1673 -1676 0
-1673 -1677 0
-1673 -1678 0
-1673 -1679 0
-1673 -1680 0
-1674 -1675 0
-1674 -1676 0
-1674 -1677 0
-1674 -1678 0
-1674 -1679 0
-1674 -1680 0
-1675 -1676 0
-1675 -1677 0
-1675 -1678 0
-1675 -1679 0
-1675 -1680 0
-1676 -1677 0
-1676 -1678 0
-1676 -1679 0
-1676 -1680 0
-1677 -1678 0
-1677 -1679 0
-1677 -1680 0
-1678 -1679 0
-1678 -1680 0
-1679 -1680 0
1681 1682 1683 1684 1685 1686 1687 1688 1689 1690 1691 1692 1693 1694 1695 1696 0
-1681 -1682 0
-1681 -1683 0
-1681 -1684 0
-1681 -1685 0
-1681 -1686 0
-1681 -1687 0
-1681 -1688 0
-1681 -1689 0
-1681 -1690 0
-1681 -1691 0
-1681 -1692 0
-1681 -1693 0
-1681 -1694 0
-1681 -1695 0
-1681 -1696 0
-1682 -1683 0
-1682 -1684 0
-1682 -1685 0
-1682 -1686 0
-1682 -1687 0
-1682 -1688 0
-1682 -1689 0
-1682 -1690 0
-1682 -1691 0
-1682 -1692 0
-1682 -1693 0
-1682 -1694 0
-1682 -1695 0
-1682 -1696 0
-1683 -1684 0
-1683 -1685 0
-1683 -1686 0
-1683 -1687 0
-1683 -1688 0
-1683 -1689 0
-1683 -1690 0
-1683 -1691 0
-1683 -1692 0
-1683 -1693 0
-1683 -1694 0
-1683 -1695 0
-1683 -1696 0
-1684 -1685 0
-1684 -1686 0
-1684 -1687 0
-1684 -1688 0
-1684 -1689 0
-1684 -1690 0
-1684 -1691 0
-1684 -1692 0
-1684 -1693 0
-1684 -1694 0
-1684 -1695 0
-1684 -1696 0
-1685 -1686 0
-1685 -1687 0
-1685 -1688 0
-1685 -1689 0
-1685 -1690 0
-1685 -1691 0
-1685 -1692 0
-1685 -1693 0
-1685 -1694 0
-1685 -1695 0
-1685 -1696 0
-1686 -1687 0
-1686 -1688 0
-1686 -1689 0
-1686 -1690 0
-1686 -1691 0
-1686 -1692 0
-1686 -1693 0
-1686 -1694 0
-1686 -1695 0
-1686 -1696 0
-1687 -1688 0
-1687 -1689 0
-1687 -1690 0
-1687 -1691 0
-1687 -1692 0
-1687 -1693 0
-1687 -1694 0
-1687 -1695 0
-1687 -1696 0
-1688 -1689 0
-1688 -1690 0
-1688 -1691 0
-1688 -1692 0
-1688 -1693 0
-1688 -1694 0
-1688 -1695 0
-1688 -1696 0
-1689 -1690 0
-1689 -1691 0
-1689 -1692 0
-1689 -1693 0
-1689 -1694 0
-1689 -1695 0
-1689 -1696 0
-1690 -1691 0
-1690 -1692 0
-1690 -1693 0
-1690 -1694 0
-1690 -1695 0
-1690 -1696 0
-1691 -1692 0
-1691 -1693 0
-1691 -1694 0
-1691 -1695 0
-1691 -1696 0
-1692 -1693 0
-1692 -1694 0
-1692 -1695 0
-1692 -1696 0
-1693 -1694 0
-1693 -1695 0
-1693 -1696 0
-1694 -1695 0
-1694 -1696 0
-1695 -1696 0
1697 1698 1699 1700 1701 1702 1703 1704 1705 1706 1707 1708 1709 1710 1711 1712 0
-1697 -1698 0
-1697 -1699 0
-1697 -1700 0
-1697 -1701 0
-1697 -1702 0
-1697 -1703 0
-1697 -1704 0
-1697 -1705 0
-1697 -1706 0
-1697 -1707 0
-1697 -1708 0
-1697 -1709 0
-1697 -1710 0
-1697 -1711 0
-1697 -1712 0
-1698 -1699 0
-1698 -1700 0
-1698 -1701 0
-1698 -1702 0
-1698 -1703 0
-1698 -1704 0
-1698 -1705 0
-1698 -1706 0
-1698 -1707 0
-1698 -1708 0
-1698 -1709 0
-1698 -1710 0
-1698 -1711 0
-1698 -1712 0
-1699 -1700 0
-1699 -1701 0
-1699 -1702 0
-1699 -1703 0
-1699 -1704 0
-1699 -1705 0
-1699 -1706 0
-1699 -1707 0
-1699 -1708 0
-1699 -1709 0
-1699 -1710 0
-1699 -1711 0
-1699 -1712 0
-1700 -1701 0
-1700 -1702 0
-1700 -1703 0
-1700 -1704 0
-1700 -1705 0
-1700 -1706 0
-1700 -1707 0
-1700 -1708 0
-1700 -1709 0
-1700 -1710 0
-1700 -1711 0
-1700 -1712 0
-1701 -1702 0
-1701 -1703 0
-1701 -1704 0
-1701 -1705 0
-1701 -1706 0
-1701 -1707 0
-1701 -1708 0
-1701 -1709 0
-1701 -1710 0
-1701 -1711 0
-1701 -1712 0
-1702 -1703 0
-1702 -1704 0
-1702 -1705 0
-1702 -1706 0
-1702 -1707 0
-1702 -1708 0
-1702 -1709 0
-1702 -1710 0
-1702 -1711 0
-1702 -1712 0
-1703 -1704 0
-1703 -1705 0
-1703 -1706 0
-1703 -1707 0
-1703 -1708 0
-1703 -1709 0
-1703 -1710 0
-1703 -1711 0
-1703 -1712 0
-1704 -1705 0
-1704 -1706 0
-1704 -1707 0
-1704 -1708 0
-1704 -1709 0
-1704 -1710 0
-1704 -1711 0
-1704 -1712 0
-1705 -1706 0
-1705 -1707 0
-1705 -1708 0
-1705 -1709 0
-1705 -1710 0
-1705 -1711 0
-1705 -1712 0
-1706 -1707 0
-1706 -1708 0
-1706 -1709 0
-1706 -1710 0
-1706 -1711 0
-1706 -1712 0
-1707 -1708 0
-1707 -1709 0
-1707 -1710 0
-1707 -1711 0
-1707 -1712 0
-1708 -1709 0
-1708 -1710 0
-1708 -1711 0
-1708 -1712 0
-1709 -1710 0
-1709 -1711 0
-1709 -1712 0
-1710 -1711 0
-1710 -1712 0
-1711 -1712 0
1713 1714 1715 1716 1717 1718 1719 1720 1721 1722 1723 1724 1725 1726 1727 1728 0
-1713 -1714 0
-1713 -1715 0
-1713 -1716 0
-1713 -1717 0
-1713 -1718 0
-1713 -1719 0
-1713 -1720 0
-1713 -1721 0
-1713 -1722 0
-1713 -1723 0
-1713 -1724 0
-1713 -1725 0
-1713 -1726 0
-1713 -1727 0
-1713 -1728 0
-1714 -1715 0
-1714 -1716 0
-1714 -1717 0
-1714 -1718 0
-1714 -1719 0
-1714 -1720 0
-1714 -1721 0
-1714 -1722 0
-1714 -1723 0
-1714 -1724 0
-1714 -1725 0
-1714 -1726 0
-1714 -1727 0
-1714 -1728 0
-1715 -1716 0
-1715 -1717 0
-1715 -1718 0
-1715 -1719 0
-1715 -1720 0
-1715 -1721 0
-1715 -1722 0
-1715 -1723 0
-1715 -1724 0
-1715 -1725 0
-1715 -1726 0
-1715 -1727 0
-1715 -1728 0
-1716 -1717 0
-1716 -1718 0
-1716 -1719 0
-1716 -1720 0
-1716 -1721 0
-1716 -1722 0
-1716 -1723 0
-1716 -1724 0
-1716 -1725 0
-1716 -1726 0
-1716 -1727 0
-1716 -1728 0
-1717 -1718 0
-1717 -1719 0
-1717 -1720 0
-1717 -1721 0
-1717 -1722 0
-1717 -1723 0
-1717 -1724 0
-1717 -1725 0
-1717 -1726 0
-1717 -1727 0
-1717 -1728 0
-1718 -1719 0
-1718 -1720 0
-1718 -1721 0
-1718 -1722 0
-1718 -1723 0
-1718 -1724 0
-1718 -1725 0
-1718 -1726 0
-1718 -1727 0
-1718 -1728 0
-1719 -1720 0
-1719 -1721 0
-1719 -1722 0
-1719 -1723 0
-1719 -1724 0
-1719 -1725 0
-1719 -1726 0
-1719 -1727 0
-1719 -1728 0
-1720 -1721 0
-1720 -1722 0
-1720 -1723 0
-1720 -1724 0
-1720 -1725 0
-1720 -1726 0
-1720 -1727 0
-1720 -1728 0
-1721 -1722 0
-1721 -1723 0
-1721 -1724 0
-1721 -1725 0
-1721 -1726 0
-1721 -1727 0
-1721 -1728 0
-1722 -1723 0
-1722 -1724 0
-1722 -1725 0
-1722 -1726 0
-1722 -1727 0
-1722 -1728 0
-1723 -1724 0
-1723 -1725 0
-1723 -1726 0
-1723 -1727 0
-1723 -1728 0
-1724 -1725 0
-1724 -1726 0
-1724 -1727 0
-1724 -1728 0
-1725 -1726 0
-1725 -1727 0
-1725 -1728 0
-1726 -1727 0
-1726 -1728 0
-1727 -1728 0
1729 1730 1731 1732 1733 1734 1735 1736 1737 1738 1739 1740 1741 1742 1743 1744 0
-1729 -1730 0
-1729 -1731 0
-1729 -1732 0
-1729 -1733 0
-1729 -1734 0
-1729 -1735 0
-1729 -1736 0
-1729 -1737 0
-1729 -1738 0
-1729 -1739 0
-1729 -1740 0
-1729 -1741 0
-1729 -1742 0
-1729 -1743 0
-1729 -1744 0
-1730 -1731 0
-1730 -1732 0
-1730 -1733 0
-1730 -1734 0
-1730 -1735 0
-1730 -1736 0
-1730 -1737 0
-1730 -1738 0
-1730 -1739 0
-1730 -1740 0
-1730 -1741 0
-1730 -1742 0
-1730 -1743 0
-1730 -1744 0
-1731 -1732 0
-1731 -1733 0
-1731 -1734 0
-1731 -1735 0
-1731 -1736 0
-1731 -1737 0
-1731 -1738 0
-1731 -1739 0
-1731 -1740 0
-1731 -1741 0
-1731 -1742 0
-1731 -1743 0
-1731 -1744 0
-1732 -1733 0
-1732 -1734 0
-1732 -1735 0
-1732 -1736 0
-1732 -1737 0
-1732 -1738 0
-1732 -1739 0
-1732 -1740 0
-1732 -1741 0
-1732 -1742 0
-1732 -1743 0
-1732 -1744 0
-1733 -1734 0
-1733 -1735 0
-1733 -1736 0
-1733 -1737 0
-1733 -1738 0
-1733 -1739 0
-1733 -1740 0
-1733 -1741 0
-1733 -1742 0
-1733 -1743 0
-1733 -1744 0
-1734 -1735 0
-1734 -1736 0
-1734 -1737 0
-1734 -1738 0
-1734 -1739 0
-1734 -1740 0
-1734 -1741 0
-1734 -1742 0
-1734 -1743 0
-1734 -1744 0
-1735 -1736 0
-1735 -1737 0
-1735 -1738 0
-1735 -1739 0
-1735 -1740 0
-1735 -1741 0
-1735 -1742 0
-1735 -1743 0
-1735 -1744 0
-1736 -1737 0
-1736 -1738 0
-1736 -1739 0
-1736 -1740 0
-1736 -1741 0
-1736 -1742 0
-1736 -1743 0
-1736 -1744 0
-1737 -1738 0
-1737 -1739 0
-1737 -1740 0
-1737 -1741 0
-1737 -1742 0
-1737 -1743 0
-1737 -1744 0
-1738 -1739 0
-1738 -1740 0
-1738 -1741 0
-1738 -1742 0
-1738 -1743 0
-1738 -1744 0
-1739 -1740 0
-1739 -1741 0
-1739 -1742 0
-1739 -1743 0
-1739 -1744 0
-1740 -1741 0
-1740 -1742 0
-1740 -1743 0
-1740 -1744 0
-1741 -1742 0
-1741 -1743 0
-1741 -1744 0
-1742 -1743 0
-1742 -1744 0
-1743 -1744 0
1745 1746 1747 1748 1749 1750 1751 1752 1753 1754 1755 1756 1757 1758 1759 1760 0
-1745 -1746 0
-1745 -1747 0
-1745 -1748 0
-1745 -1749 0
-1745 -1750 0
-1745 -1751 0
-1745 -1752 0
-1745 -1753 0
-1745 -1754 0
-1745 -1755 0
-1745 -1756 0
-1745 -1757 0
-1745 -1758 0
-1745 -1759 0
-1745 -1760 0
-1746 -1747 0
-1746 -1748 0
-1746 -1749 0
-1746 -1750 0
-1746 -1751 0
-1746 -1752 0
-1746 -1753 0
-1746 -1754 0
-1746 -1755 0
-1746 -1756 0
-1746 -1757 0
-1746 -1758 0
-1746 -1759 0
-1746 -1760 0
-1747 -1748 0
-1747 -1749 0
-1747 -1750 0
-1747 -1751 0
-1747 -1752 0
-1747 -1753 0
-1747 -1754 0
-1747 -1755 0
-1747 -1756 0
-1747 -1757 0
-1747 -1758 0
-1747 -1759 0
-1747 -1760 0
-1748 -1749 0
-1748 -1750 0
-1748 -1751 0
-1748 -1752 0
-1748 -1753 0
-1748 -1754 0
-1748 -1755 0
-1748 -1756 0
-1748 -1757 0
-1748 -1758 0
-1748 -1759 0
-1748 -1760 0
-1749 -1750 0
-1749 -1751 0
-1749 -1752 0
-1749 -1753 0
-1749 -1754 0
-1749 -1755 0
-1749 -1756 0
-1749 -1757 0
-1749 -1758 0
-1749 -1759 0
-1749 -1760 0
-1750 -1751 0
-1750 -1752 0
-1750 -1753 0
-1750 -1754 0
-1750 -1755 0
-1750 -1756 0
-1750 -1757 0
-1750 -1758 0
-1750 -1759 0
-1750 -1760 0
-1751 -1752 0
-1751 -1753 0
-1751 -1754 0
-1751 -1755 0
-1751 -1756 0
-1751 -1757 0
-1751 -1758 0
-1751 -1759 0
-1751 -1760 0
-1752 -1753 0
-1752 -1754 0
-1752 -1755 0
-1752 -1756 0
-1752 -1757 0
-1752 -1758 0
-1752 -1759 0
-1752 -1760 0
-1753 -1754 0
-1753 -1755 0
-1753 -1756 0
-1753 -1757 0
-1753 -1758 0
-1753 -1759 0
-1753 -1760 0
-1754 -1755 0
-1754 -1756 0
-1754 -1757 0
-1754 -1758 0
-1754 -1759 0
-1754 -1760 0
-1755 -1756 0
-1755 -1757 0
-1755 -1758 0
-1755 -1759 0
-1755 -1760 0
-1756 -1757 0
-1756 -1758 0
-1756 -1759 0
-1756 -1760 0
-1757 -1758 0
-1757 -1759 0
-1757 -1760 0
-1758 -1759 0
-1758 -1760 0
-1759 -1760 0
1761 1762 1763 1764 1765 1766 1767 1768 1769 1770 1771 1772 1773 1774 1775 1776 0
-1761 -1762 0
-1761 -1763 0
-1761 -1764 0
-1761 -1765 0
-1761 -1766 0
-1761 -1767 0
-1761 -1768 0
-1761 -1769 0
-1761 -1770 0
-1761 -1771 0
-1761 -1772 0
-1761 -1773 0
-1761 -1774 0
-1761 -1775 0
-1761 -1776 0
-1762 -1763 0
-1762 -1764 0
-1762 -1765 0
-1762 -1766 0
-1762 -1767 0
-1762 -1768 0
-1762 -1769 0
-1762 -1770 0
-1762 -1771 0
-1762 -1772 0
-1762 -1773 0
-1762 -1774 0
-1762 -1775 0
-1762 -1776 0
-1763 -1764 0
-1763 -1765 0
-1763 -1766 0
-1763 -1767 0
-1763 -1768 0
-1763 -1769 0
-1763 -1770 0
-1763 -1771 0
-1763 -1772 0
-1763 -1773 0
-1763 -1774 0
-1763 -1775 0
-1763 -1776 0
-1764 -1765 0
-1764 -1766 0
-1764 -1767 0
-1764 -1768 0
-1764 -1769 0
-1764 -1770 0
-1764 -1771 0
-1764 -1772 0
-1764 -1773 0
-1764 -1774 0
-1764 -1775 0
-1764 -1776 0
-1765 -1766 0
-1765 -1767 0
-1765 -1768 0
-1765 -1769 0
-1765 -1770 0
-1765 -1771 0
-1765 -1772 0
-1765 -1773 0
-1765 -1774 0
-1765 -1775 0
-1765 -1776 0
-1766 -1767 0
-1766 -1768 0
-1766 -1769 0
-1766 -1770 0
-1766 -1771 0
-1766 -1772 0
-1766 -1773 0
-1766 -1774 0
-1766 -1775 0
-1766 -1776 0
-1767 -1768 0
-1767 -1769 0
-1767 -1770 0
-1767 -1771 0
-1767 -1772 0
-1767 -1773 0
-1767 -1774 0
-1767 -1775 0
-1767 -1776 0
-1768 -1769 0
-1768 -1770 0
-1768 -1771 0
-1768 -1772 0
-1768 -1773 0
-1768 -1774 0
-1768 -1775 0
-1768 -1776 0
-1769 -1770 0
-1769 -1771 0
-1769 -1772 0
-1769 -1773 0
-1769 -1774 0
-1769 -1775 0
-1769 -1776 0
-1770 -1771 0
-1770 -1772 0
-1770 -1773 0
-1770 -1774 0
-1770 -1775 0
-1770 -1776 0
-1771 -1772 0
-1771 -1773 0
-1771 -1774 0
-1771 -1775 0
-1771 -1776 0
-1772 -1773 0
-1772 -1774 0
-1772 -1775 0
-1772 -1776 0
-1773 -1774 0
-1773 -1775 0
-1773 -1776 0
-1774 -1775 0
-1774 -1776 0
-1775 -1776 0
1777 1778 1779 1780 1781 1782 1783 1784 1785 1786 1787 1788 1789 1790 1791 1792 0
-1777 -1778 0
-1777 -1779 0
-1777 -1780 0
-1777 -1781 0
-1777 -1782 0
-1777 -1783 0
-1777 -1784 0
-1777 -1785 0
-1777 -1786 0
-1777 -1787 0
-1777 -1788 0
-1777 -1789 0
-1777 -1790 0
-1777 -1791 0
-1777 -1792 0
-1778 -1779 0
-1778 -1780 0
-1778 -1781 0
-1778 -1782 0
-1778 -1783 0
-1778 -1784 0
-1778 -1785 0
-1778 -1786 0
-1778 -1787 0
-1778 -1788 0
-1778 -1789 0
-1778 -1790 0
-1778 -1791 0
-1778 -1792 0
-1779 -1780 0
-1779 -1781 0
-1779 -1782 0
-1779 -1783 0
-1779 -1784 0
-1779 -1785 0
-1779 -1786 0
-1779 -1787 0
-1779 -1788 0
-1779 -1789 0
-1779 -1790 0
-1779 -1791 0
-1779 -1792 0
-1780 -1781 0
-1780 -1782 0
-1780 -1783 0
-1780 -1784 0
-1780 -1785 0
-1780 -1786 0
-1780 -1787 0
-1780 -1788 0
-1780 -1789 0
-1780 -1790 0
-1780 -1791 0
-1780 -1792 0
-1781 -1782 0
-1781 -1783 0
-1781 -1784 0
-1781 -1785 0
-1781 -1786 0
-1781 -1787 0
-1781 -1788 0
-1781 -1789 0
-1781 -1790 0
-1781 -1791 0
-1781 -1792 0
-1782 -1783 0
-1782 -1784 0
-1782 -1785 0
-1782 -1786 0
-1782 -1787 0
-1782 -1788 0
-1782 -1789 0
-1782 -1790 0
-1782 -1791 0
-1782 -1792 0
-1783 -1784 0
-1783 -1785 0
-1783 -1786 0
-1783 -1787 0
-1783 -1788 0
-1783 -1789 0
-1783 -1790 0
-1783 -1791 0
-1783 -1792 0
-1784 -1785 0
-1784 -1786 0
-1784 -1787 0
-1784 -1788 0
-1784 -1789 0
-1784 -1790 0
-1784 -1791 0
-1784 -1792 0
-1785 -1786 0
-1785 -1787 0
-1785 -1788 0
-1785 -1789 0
-1785 -1790 0
-1785 -1791 0
-1785 -1792 0
-1786 -1787 0
-1786 -1788 0
-1786 -1789 0
-1786 -1790 0
-1786 -1791 0
-1786 -1792 0
-1787 -1788 0
-1787 -1789 0
-1787 -1790 0
-1787 -1791 0
-1787 -1792 0
-1788 -1789 0
-1788 -1790 0
-1788 -1791 0
-1788 -1792 0
-1789 -1790 0
-1789 -1791 0
-1789 -1792 0
-1790 -1791 0
-1790 -1792 0
-1791 -1792 0
1793 1794 1795 1796 1797 1798 1799 1800 1801 1802 1803 1804 1805 1806 1807 1808 0
-1793 -1794 0
-1793 -1795 0
-1793 -1796 0
-1793 -1797 0
-1793 -1798 0
-1793 -1799 0
-1793 -1800 0
-1793 -1801 0
-1793 -1802 0
-1793 -1803 0
-1793 -1804 0
-1793 -1805 0
-1793 -1806 0
-1793 -1807 0
-1793 -1808 0
-1794 -1795 0
-1794 -1796 0
-1794 -1797 0
-1794 -1798 0
-1794 -1799 0
-1794 -1800 0
-1794 -1801 0
-1794 -1802 0
-1794 -1803 0
-1794 -1804 0
-1794 -1805 0
-1794 -1806 0
-1794 -1807 0
-1794 -1808 0
-1795 -1796 0
-1795 -1797 0
-1795 -1798 0
-1795 -1799 0
-1795 -1800 0
-1795 -1801 0
-1795 -1802 0
-1795 -1803 0
-1795 -1804 0
-1795 -1805 0
-1795 -1806 0
-1795 -1807 0
-1795 -1808 0
-1796 -1797 0
-1796 -1798 0
-1796 -1799 0
-1796 -1800 0
-1796 -1801 0
-1796 -1802 0
-1796 -1803 0
-1796 -1804 0
-1796 -1805 0
-1796 -1806 0
-1796 -1807 0
-1796 -1808 0
-1797 -1798 0
-1797 -1799 0
-1797 -1800 0
-1797 -1801 0
-1797 -1802 0
-1797 -1803 0
-1797 -1804 0
-1797 -1805 0
-1797 -1806 0
-1797 -1807 0
-1797 -1808 0
-1798 -1799 0
-1798 -1800 0
-1798 -1801 0
-1798 -1802 0
-1798 -1803 0
-1798 -1804 0
-1798 -1805 0
-1798 -1806 0
-1798 -1807 0
-1798 -1808 0
-1799 -1800 0
-1799 -1801 0
-1799 -1802 0
-1799 -1803 0
-1799 -1804 0
-1799 -1805 0
-1799 -1806 0
-1799 -1807 0
-1799 -1808 0
-1800 -1801 0
-1800 -1802 0
-1800 -1803 0
-1800 -1804 0
-1800 -1805 0
-1800 -1806 0
-1800 -1807 0
-1800 -1808 0
-1801 -1802 0
-1801 -1803 0
-1801 -1804 0
-1801 -1805 0
-1801 -1806 0
-1801 -1807 0
-1801 -1808 0
-1802 -1803 0
-1802 -1804 0
-1802 -1805 0
-1802 -1806 0
-1802 -1807 0
-1802 -1808 0
-1803 -1804 0
-1803 -1805 0
-1803 -1806 0
-1803 -1807 0
-1803 -1808 0
-1804 -1805 0
-1804 -1806 0
-1804 -1807 0
-1804 -1808 0
-1805 -1806 0
-1805 -1807 0
-1805 -1808 0
-1806 -1807 0
-1806 -1808 0
-1807 -1808 0
1809 1810 1811 1812 1813 1814 1815 1816 1817 1818 1819 1820 1821 1822 1823 1824 0
-1809 -1810 0
-1809 -1811 0
-1809 -1812 0
-1809 -1813 0
-1809 -1814 0
-1809 -1815 0
-1809 -1816 0
-1809 -1817 0
-1809 -1818 0
-1809 -1819 0
-1809 -1820 0
-1809 -1821 0
-1809 -1822 0
-1809 -1823 0
-1809 -1824 0
-1810 -1811 0
-1810 -1812 0
-1810 -1813 0
-1810 -1814 0
-1810 -1815 0
-1810 -1816 0
-1810 -1817 0
-1810 -1818 0
-1810 -1819 0
-1810 -1820 0
-1810 -1821 0
-1810 -1822 0
-1810 -1823 0
-1810 -1824 0
-1811 -1812 0
-1811 -1813 0
-1811 -1814 0
-1811 -1815 0
-1811 -1816 0
-1811 -1817 0
-1811 -1818 0
-1811 -1819 0
-1811 -1820 0
-1811 -1821 0
-1811 -1822 0
-1811 -1823 0
-1811 -1824 0
-1812 -1813 0
-1812 -1814 0
-1812 -1815 0
-1812 -1816 0
-1812 -1817 0
-1812 -1818 0
-1812 -1819 0
-1812 -1820 0
-1812 -1821 0
-1812 -1822 0
-1812 -1823 0
-1812 -1824 0
-1813 -1814 0
-1813 -1815 0
-1813 -1816 0
-1813 -1817 0
-1813 -1818 0
-1813 -1819 0
-1813 -1820 0
-1813 -1821 0
-1813 -1822 0
-1813 -1823 0
-1813 -1824 0
-1814 -1815 0
-1814 -1816 0
-1814 -1817 0
-1814 -1818 0
-1814 -1819 0
-1814 -1820 0
-1814 -1821 0
-1814 -1822 0
-1814 -1823 0
-1814 -1824 0
-1815 -1816 0
-1815 -1817 0
-1815 -1818 0
-1815 -1819 0
-1815 -1820 0
-1815 -1821 0
-1815 -1822 0
-1815 -1823 0
-1815 -1824 0
-1816 -1817 0
-1816 -1818 0
-1816 -1819 0
-1816 -1820 0
-1816 -1821 0
-1816 -1822 0
-1816 -1823 0
-1816 -1824 0
-1817 -1818 0
-1817 -1819 0
-1817 -1820 0
-1817 -1821 0
-1817 -1822 0
-1817 -1823 0
-1817 -1824 0
-1818 -1819 0
-1818 -1820 0
-1818 -1821 0
-1818 -1822 0
-1818 -1823 0
-1818 -1824 0
-1819 -1820 0
-1819 -1821 0
-1819 -1822 0
-1819 -1823 0
-1819 -1824 0
-1820 -1821 0
-1820 -1822 0
-1820 -1823 0
-1820 -1824 0
-1821 -1822 0
-1821 -1823 0
-1821 -1824 0
-1822 -1823 0
-1822 -1824 0
-1823 -1824 0
1825 1826 1827 1828 1829 1830 1831 1832 1833 1834 1835 1836 1837 1838 1839 1840 0
-1825 -1826 0
-1825 -1827 0
-1825 -1828 0
-1825 -1829 0
-1825 -1830 0
-1825 -1831 0
-1825 -1832 0
-1825 -1833 0
-1825 -1834 0
-1825 -1835 0
-1825 -1836 0
-1825 -1837 0
-1825 -1838 0
-1825 -1839 0
-1825 -1840 0
-1826 -1827 0
-1826 -1828 0
-1826 -1829 0
-1826 -1830 0
-1826 -1831 0
-1826 -1832 0
-1826 -1833 0
-1826 -1834 0
-1826 -1835 0
-1826 -1836 0
-1826 -1837 0
-1826 -1838 0
-1826 -1839 0
-1826 -1840 0
-1827 -1828 0
-1827 -1829 0
-1827 -1830 0
-1827 -1831 0
-1827 -1832 0
-1827 -1833 0
-1827 -1834 0
-1827 -1835 0
-1827 -1836 0
-1827 -1837 0
-1827 -1838 0
-1827 -1839 0
-1827 -1840 0
-1828 -1829 0
-1828 -1830 0
-1828 -1831 0
-1828 -1832 0
-1828 -1833 0
-1828 -1834 0
-1828 -1835 0
-1828 -1836 0
-1828 -1837 0
-1828 -1838 0
-1828 -1839 0
-1828 -1840 0
-1829 -1830 0
-1829 -1831 0
-1829 -1832 0
-1829 -1833 0
-1829 -1834 0
-1829 -1835 0
-1829 -1836 0
-1829 -1837 0
-1829 -1838 0
-1829 -1839 0
-1829 -1840 0
-1830 -1831 0
-1830 -1832 0
-1830 -1833 0
-1830 -1834 0
-1830 -1835 0
-1830 -1836 0
-1830 -1837 0
-1830 -1838 0
-1830 -1839 0
-1830 -1840 0
-1831 -1832 0
-1831 -1833 0
-1831 -1834 0
-1831 -1835 0
-1831 -1836 0
-1831 -1837 0
-1831 -1838 0
-1831 -1839 0
-1831 -1840 0
-1832 -1833 0
-1832 -1834 0
-1832 -1835 0
-1832 -1836 0
-1832 -1837 0
-1832 -1838 0
-1832 -1839 0
-1832 -1840 0
-1833 -1834 0
-1833 -1835 0
-1833 -1836 0
-1833 -1837 0
-1833 -1838 0
-1833 -1839 0
-1833 -1840 0
-1834 -1835 0
-1834 -1836 0
-1834 -1837 0
-1834 -1838 0
-1834 -1839 0
-1834 -1840 0
-1835 -1836 0
-1835 -1837 0
-1835 -1838 0
-1835 -1839 0
-1835 -1840 0
-1836 -1837 0
-1836 -1838 0
-1836 -1839 0
-1836 -1840 0
-1837 -1838 0
-1837 -1839 0
-1837 -1840 0
-1838 -1839 0
-1838 -1840 0
-1839 -1840 0
1841 1842 1843 1844 1845 1846 1847 1848 1849 1850 1851 1852 1853 1854 1855 1856 0
-1841 -1842 0
-1841 -1843 0
-1841 -1844 0
-1841 -1845 0
-1841 -1846 0
-1841 -1847 0
-1841 -1848 0
-1841 -1849 0
-1841 -1850 0
-1841 -1851 0
-1841 -1852 0
-1841 -1853 0
-1841 -1854 0
-1841 -1855 0
-1841 -1856 0
-1842 -1843 0
-1842 -1844 0
-1842 -1845 0
-1842 -1846 0
-1842 -1847 0
-1842 -1848 0
-1842 -1849 0
-1842 -1850 0
-1842 -1851 0
-1842 -1852 0
-1842 -1853 0
-1842 -1854 0
-1842 -1855 0
-1842 -1856 0
-1843 -1844 0
-1843 -1845 0
-1843 -1846 0
-1843 -1847 0
-1843 -1848 0
-1843 -1849 0
-1843 -1850 0
-1843 -1851 0
-1843 -1852 0
-1843 -1853 0
-1843 -1854 0
-1843 -1855 0
-1843 -1856 0
-1844 -1845 0
-1844 -1846 0
-1844 -1847 0
-1844 -1848 0
-1844 -1849 0
-1844 -1850 0
-1844 -1851 0
-1844 -1852 0
-1844 -1853 0
-1844 -1854 0
-1844 -1855 0
-1844 -1856 0
-1845 -1846 0
-1845 -1847 0
-1845 -1848 0
-1845 -1849 0
-1845 -1850 0
-1845 -1851 0
-1845 -1852 0
-1845 -1853 0
-1845 -1854 0
-1845 -1855 0
-1845 -1856 0
-1846 -1847 0
-1846 -1848 0
-1846 -1849 0
-1846 -1850 0
-1846 -1851 0
-1846 -1852 0
-1846 -1853 0
-1846 -1854 0
-1846 -1855 0
-1846 -1856 0
-1847 -1848 0
-1847 -1849 0
-1847 -1850 0
-1847 -1851 0
-1847 -1852 0
-1847 -1853 0
-1847 -1854 0
-1847 -1855 0
-1847 -1856 0
-1848 -1849 0
-1848 -1850 0
-1848 -1851 0
-1848 -1852 0
-1848 -1853 0
-1848 -1854 0
-1848 -1855 0
-1848 -1856 0
-1849 -1850 0
-1849 -1851 0
-1849 -1852 0
-1849 -1853 0
-1849 -1854 0
-1849 -1855 0
-1849 -1856 0
-1850 -1851 0
-1850 -1852 0
-1850 -1853 0
-1850 -1854 0
-1850 -1855 0
-1850 -1856 0
-1851 -1852 0
-1851 -1853 0
-1851 -1854 0
-1851 -1855 0
-1851 -1856 0
-1852 -1853 0
-1852 -1854 0
-1852 -1855 0
-1852 -1856 0
-1853 -1854 0
-1853 -1855 0
-1853 -1856 0
-1854 -1855 0
-1854 -1856 0
-1855 -1856 0
1857 1858 1859 1860 1861 1862 1863 1864 1865 1866 1867 1868 1869 1870 1871 1872 0
-1857 -1858 0
-1857 -1859 0
-1857 -1860 0
-1857 -1861 0
-1857 -1862 0
-1857 -1863 0
-1857 -1864 0
-1857 -1865 0
-1857 -1866 0
-1857 -1867 0
-1857 -1868 0
-1857 -1869 0
-1857 -1870 0
-1857 -1871 0
-1857 -1872 0
-1858 -1859 0
-1858 -1860 0
-1858 -1861 0
-1858 -1862 0
-1858 -1863 0
-1858 -1864 0
-1858 -1865 0
-1858 -1866 0
-1858 -1867 0
-1858 -1868 0
-1858 -1869 0
-1858 -1870 0
-1858 -1871 0
-1858 -1872 0
-1859 -1860 0
-1859 -1861 0
-1859 -1862 0
-1859 -1863 0
-1859 -1864 0
-1859 -1865 0
-1859 -1866 0
-1859 -1867 0
-1859 -1868 0
-1859 -1869 0
-1859 -1870 0
-1859 -1871 0
-1859 -1872 0
-1860 -1861 0
-1860 -1862 0
-1860 -1863 0
-1860 -1864 0
-1860 -1865 0
-1860 -1866 0
-1860 -1867 0
-1860 -1868 0
-1860 -1869 0
-1860 -1870 0
-1860 -1871 0
-1860 -1872 0
-1861 -1862 0
-1861 -1863 0
-1861 -1864 0
-1861 -1865 0
-1861 -1866 0
-1861 -1867 0
-1861 -1868 0
-1861 -1869 0
-1861 -1870 0
-1861 -1871 0
-1861 -1872 0
-1862 -1863 0
-1862 -1864 0
-1862 -1865 0
-1862 -1866 0
-1862 -1867 0
-1862 -1868 0
-1862 -1869 0
-1862 -1870 0
-1862 -1871 0
-1862 -1872 0
-1863 -1864 0
-1863 -1865 0
-1863 -1866 0
-1863 -1867 0
-1863 -1868 0
-1863 -1869 0
-1863 -1870 0
-1863 -1871 0
-1863 -1872 0
-1864 -1865 0
-1864 -1866 0
-1864 -1867 0
-1864 -1868 0
-1864 -1869 0
-1864 -1870 0
-1864 -1871 0
-1864 -1872 0
-1865 -1866 0
-1865 -1867 0
-1865 -1868 0
-1865 -1869 0
-1865 -1870 0
-1865 -1871 0
-1865 -1872 0
-1866 -1867 0
-1866 -1868 0
-1866 -1869 0
-1866 -1870 0
-1866 -1871 0
-1866 -1872 0
-1867 -1868 0
-1867 -1869 0
-1867 -1870 0
-1867 -1871 0
-1867 -1872 0
-1868 -1869 0
-1868 -1870 0
-1868 -1871 0
-1868 -1872 0
-1869 -1870 0
-1869 -1871 0
-1869 -1872 0
-1870 -1871 0
-1870 -1872 0
-1871 -1872 0
1873 1874 1875 1876 1877 1878 1879 1880 1881 1882 1883 1884 1885 1886 1887 1888 0
-1873 -1874 0
-1873 -1875 0
-1873 -1876 0
-1873 -1877 0
-1873 -1878 0
-1873 -1879 0
-1873 -1880 0
-1873 -1881 0
-1873 -1882 0
-1873 -1883 0
-1873 -1884 0
-1873 -1885 0
-1873 -1886 0
-1873 -1887 0
-1873 -1888 0
-1874 -1875 0
-1874 -1876 0
-1874 -1877 0
-1874 -1878 0
-1874 -1879 0
-1874 -1880 0
-1874 -1881 0
-1874 -1882 0
-1874 -1883 0
-1874 -1884 0
-1874 -1885 0
-1874 -1886 0
-1874 -1887 0
-1874 -1888 0
-1875 -1876 0
-1875 -1877 0
-1875 -1878 0
-1875 -1879 0
-1875 -1880 0
-1875 -1881 0
-1875 -1882 0
-1875 -1883 0
-1875 -1884 0
-1875 -1885 0
-1875 -1886 0
-1875 -1887 0
-1875 -1888 0
-1876 -1877 0
-1876 -1878 0
-1876 -1879 0
-1876 -1880 0
-1876 -1881 0
-1876 -1882 0
-1876 -1883 0
-1876 -1884 0
-1876 -1885 0
-1876 -1886 0
-1876 -1887 0
-1876 -1888 0
-1877 -1878 0
-1877 -1879 0
-1877 -1880 0
-1877 -1881 0
-1877 -1882 0
-1877 -1883 0
-1877 -1884 0
-1877 -1885 0
-1877 -1886 0
-1877 -1887 0
-1877 -1888 0
-1878 -1879 0
-1878 -1880 0
-1878 -1881 0
-1878 -1882 0
-1878 -1883 0
-1878 -1884 0
-1878 -1885 0
-1878 -1886 0
-1878 -1887 0
-1878 -1888 0
-1879 -1880 0
-1879 -1881 0
-1879 -1882 0
-1879 -1883 0
-1879 -1884 0
-1879 -1885 0
-1879 -1886 0
-1879 -1887 0
-1879 -1888 0
-1880 -1881 0
-1880 -1882 0
-1880 -1883 0
-1880 -1884 0
-1880 -1885 0
-1880 -1886 0
-1880 -1887 0
-1880 -1888 0
-1881 -1882 0
-1881 -1883 0
-1881 -1884 0
-1881 -1885 0
-1881 -1886 0
-1881 -1887 0
-1881 -1888 0
-1882 -1883 0
-1882 -1884 0
-1882 -1885 0
-1882 -1886 0
-1882 -1887 0
-1882 -1888 0
-1883 -1884 0
-1883 -1885 0
-1883 -1886 0
-1883 -1887 0
-1883 -1888 0
-1884 -1885 0
-1884 -1886 0
-1884 -1887 0
-1884 -1888 0
-1885 -1886 0
-1885 -1887 0
-1885 -1888 0
-1886 -1887 0
-1886 -1888 0
-1887 -1888 0
1889 1890 1891 1892 1893 1894 1895 1896 1897 1898 1899 1900 1901 1902 1903 1904 0
-1889 -1890 0
-1889 -1891 0
-1889 -1892 0
-1889 -1893 0
-1889 -1894 0
-1889 -1895 0
-1889 -1896 0
-1889 -1897 0
-1889 -1898 0
-1889 -1899 0
-1889 -1900 0
-1889 -1901 0
-1889 -1902 0
-1889 -1903 0
-1889 -1904 0
-1890 -1891 0
-1890 -1892 0
-1890 -1893 0
-1890 -1894 0
-1890 -1895 0
-1890 -1896 0
-1890 -1897 0
-1890 -1898 0
-1890 -1899 0
-1890 -1900 0
-1890 -1901 0
-1890 -1902 0
-1890 -1903 0
-1890 -1904 0
-1891 -1892 0
-1891 -1893 0
-1891 -1894 0
-1891 -1895 0
-1891 -1896 0
-1891 -1897 0
-1891 -1898 0
-1891 -1899 0
-1891 -1900 0
-1891 -1901 0
-1891 -1902 0
-1891 -1903 0
-1891 -1904 0
-1892 -1893 0
-1892 -1894 0
-1892 -1895 0
-1892 -1896 0
-1892 -1897 0
-1892 -1898 0
-1892 -1899 0
-1892 -1900 0
-1892 -1901 0
-1892 -1902 0
-1892 -1903 0
-1892 -1904 0
-1893 -1894 0
-1893 -1895 0
-1893 -1896 0
-1893 -1897 0
-1893 -1898 0
-1893 -1899 0
-1893 -1900 0
-1893 -1901 0
-1893 -1902 0
-1893 -1903 0
-1893 -1904 0
-1894 -1895 0
-1894 -1896 0
-1894 -1897 0
-1894 -1898 0
-1894 -1899 0
-1894 -1900 0
-1894 -1901 0
-1894 -1902 0
-1894 -1903 0
-1894 -1904 0
-1895 -1896 0
-1895 -1897 0
-1895 -1898 0
-1895 -1899 0
-1895 -1900 0
-1895 -1901 0
-1895 -1902 0
-1895 -1903 0
-1895 -1904 0
-1896 -1897 0
-1896 -1898 0
-1896 -1899 0
-1896 -1900 0
-1896 -1901 0
-1896 -1902 0
-1896 -1903 0
-1896 -1904 0
-1897 -1898 0
-1897 -1899 0
-1897 -1900 0
-1897 -1901 0
-1897 -1902 0
-1897 -1903 0
-1897 -1904 0
-1898 -1899 0
-1898 -1900 0
-1898 -1901 0
-1898 -1902 0
-1898 -1903 0
-1898 -1904 0
-1899 -1900 0
-1899 -1901 0
-1899 -1902 0
-1899 -1903 0
-1899 -1904 0
-1900 -1901 0
-1900 -1902 0
-1900 -1903 0
-1900 -1904 0
-1901 -1902 0
-1901 -1903 0
-1901 -1904 0
-1902 -1903 0
-1902 -1904 0
-1903 -1904 0
1905 1906 1907 1908 1909 1910 1911 1912 1913 1914 1915 1916 1917 1918 1919 1920 0
-1905 -1906 0
-1905 -1907 0
-1905 -1908 0
-1905 -1909 0
-1905 -1910 0
-1905 -1911 0
-1905 -1912 0
-1905 -1913 0
-1905 -1914 0
-1905 -1915 0
-1905 -1916 0
-1905 -1917 0
-1905 -1918 0
-1905 -1919 0
-1905 -1920 0
-1906 -1907 0
-1906 -1908 0
-1906 -1909 0
-1906 -1910 0
-1906 -1911 0
-1906 -1912 0
-1906 -1913 0
-1906 -1914 0
-1906 -1915 0
-1906 -1916 0
-1906 -1917 0
-1906 -1918 0
-1906 -1919 0
-1906 -1920 0
-1907 -1908 0
-1907 -1909 0
-1907 -1910 0
-1907 -1911 0
-1907 -1912 0
-1907 -1913 0
-1907 -1914 0
-1907 -1915 0
-1907 -1916 0
-1907 -1917 0
-1907 -1918 0
-1907 -1919 0
-1907 -1920 0
-1908 -1909 0
-1908 -1910 0
-1908 -1911 0
-1908 -1912 0
-1908 -1913 0
-1908 -1914 0
-1908 -1915 0
-1908 -1916 0
-1908 -1917 0
-1908 -1918 0
-1908 -1919 0
-1908 -1920 0
-1909 -1910 0
-1909 -1911 0
-1909 -1912 0
-1909 -1913 0
-1909 -1914 0
-1909 -1915 0
-1909 -1916 0
-1909 -1917 0
-1909 -1918 0
-1909 -1919 0
-1909 -1920 0
-1910 -1911 0
-1910 -1912 0
-1910 -1913 0
-1910 -1914 0
-1910 -1915 0
-1910 -1916 0
-1910 -1917 0
-1910 -1918 0
-1910 -1919 0
-1910 -1920 0
-1911 -1912 0
-1911 -1913 0
-1911 -1914 0
-1911 -1915 0
-1911 -1916 0
-1911 -1917 0
-1911 -1918 0
-1911 -1919 0
-1911 -1920 0
-1912 -1913 0
-1912 -1914 0
-1912 -1915 0
-1912 -1916 0
-1912 -1917 0
-1912 -1918 0
-1912 -1919 0
-1912 -1920 0
-1913 -1914 0
-1913 -1915 0
-1913 -1916 0
-1913 -1917 0
-1913 -1918 0
-1913 -1919 0
-1913 -1920 0
-1914 -1915 0
-1914 -1916 0
-1914 -1917 0
-1914 -1918 0
-1914 -1919 0
-1914 -1920 0
-1915 -1916 0
-1915 -1917 0
-1915 -1918 0
-1915 -1919 0
-1915 -1920 0
-1916 -1917 0
-1916 -1918 0
-1916 -1919 0
-1916 -1920 0
-1917 -1918 0
-1917 -1919 0
-1917 -1920 0
-1918 -1919 0
-1918 -1920 0
-1919 -1920 0
1921 1922 1923 1924 1925 1926 1927 1928 1929 1930 1931 1932 1933 1934 1935 1936 0
-1921 -1922 0
-1921 -1923 0
-1921 -1924 0
-1921 -1925 0
-1921 -1926 0
-1921 -1927 0
-1921 -1928 0
-1921 -1929 0
-1921 -1930 0
-1921 -1931 0
-1921 -1932 0
-1921 -1933 0
-1921 -1934 0
-1921 -1935 0
-1921 -1936 0
-1922 -1923 0
-1922 -1924 0
-1922 -1925 0
-1922 -1926 0
-1922 -1927 0
-1922 -1928 0
-1922 -1929 0
-1922 -1930 0
-1922 -1931 0
-1922 -1932 0
-1922 -1933 0
-1922 -1934 0
-1922 -1935 0
-1922 -1936 0
-1923 -1924 0
-1923 -1925 0
-1923 -1926 0
-1923 -1927 0
-1923 -1928 0
-1923 -1929 0
-1923 -1930 0
-1923 -1931 0
-1923 -1932 0
-1923 -1933 0
-1923 -1934 0
-1923 -1935 0
-1923 -1936 0
-1924 -1925 0
-1924 -1926 0
-1924 -1927 0
-1924 -1928 0
-1924 -1929 0
-1924 -1930 0
-1924 -1931 0
-1924 -1932 0
-1924 -1933 0
-1924 -1934 0
-1924 -1935 0
-1924 -1936 0
-1925 -1926 0
-1925 -1927 0
-1925 -1928 0
-1925 -1929 0
-1925 -1930 0
-1925 -1931 0
-1925 -1932 0
-1925 -1933 0
-1925 -1934 0
-1925 -1935 0
-1925 -1936 0
-1926 -1927 0
-1926 -1928 0
-1926 -1929 0
-1926 -1930 0
-1926 -1931 0
-1926 -1932 0
-1926 -1933 0
-1926 -1934 0
-1926 -1935 0
-1926 -1936 0
-1927 -1928 0
-1927 -1929 0
-1927 -1930 0
-1927 -1931 0
-1927 -1932 0
-1927 -1933 0
-1927 -1934 0
-1927 -1935 0
-1927 -1936 0
-1928 -1929 0
-1928 -1930 0
-1928 -1931 0
-1928 -1932 0
-1928 -1933 0
-1928 -1934 0
-1928 -1935 0
-1928 -1936 0
-1929 -1930 0
-1929 -1931 0
-1929 -1932 0
-1929 -1933 0
-1929 -1934 0
-1929 -1935 0
-1929 -1936 0
-1930 -1931 0
-1930 -1932 0
-1930 -1933 0
-1930 -1934 0
-1930 -1935 0
-1930 -1936 0
-1931 -1932 0
-1931 -1933 0
-1931 -1934 0
-1931 -1935 0
-1931 -1936 0
-1932 -1933 0
-1932 -1934 0
-1932 -1935 0
-1932 -1936 0
-1933 -1934 0
-1933 -1935 0
-1933 -1936 0
-1934 -1935 0
-1934 -1936 0
-1935 -1936 0
1937 1938 1939 1940 1941 1942 1943 1944 1945 1946 1947 1948 1949 1950 1951 1952 0
-1937 -1938 0
-1937 -1939 0
-1937 -1940 0
-1937 -1941 0
-1937 -1942 0
-1937 -1943 0
-1937 -1944 0
-1937 -1945 0
-1937 -1946 0
-1937 -1947 0
-1937 -1948 0
-1937 -1949 0
-1937 -1950 0
-1937 -1951 0
-1937 -1952 0
-1938 -1939 0
-1938 -1940 0
-1938 -1941 0
-1938 -1942 0
-1938 -1943 0
-1938 -1944 0
-1938 -1945 0
-1938 -1946 0
-1938 -1947 0
-1938 -1948 0
-1938 -1949 0
-1938 -1950 0
-1938 -1951 0
-1938 -1952 0
-1939 -1940 0
-1939 -1941 0
-1939 -1942 0
-1939 -1943 0
-1939 -1944 0
-1939 -1945 0
-1939 -1946 0
-1939 -1947 0
-1939 -1948 0
-1939 -1949 0
-1939 -1950 0
-1939 -1951 0
-1939 -1952 0
-1940 -1941 0
-1940 -1942 0
-1940 -1943 0
-1940 -1944 0
-1940 -1945 0
-1940 -1946 0
-1940 -1947 0
-1940 -1948 0
-1940 -1949 0
-1940 -1950 0
-1940 -1951 0
-1940 -1952 0
-1941 -1942 0
-1941 -1943 0
-1941 -1944 0
-1941 -1945 0
-1941 -1946 0
-1941 -1947 0
-1941 -1948 0
-1941 -1949 0
-1941 -1950 0
-1941 -1951 0
-1941 -1952 0
-1942 -1943 0
-1942 -1944 0
-1942 -1945 0
-1942 -1946 0
-1942 -1947 0
-1942 -1948 0
-1942 -1949 0
-1942 -1950 0
-1942 -1951 0
-1942 -1952 0
-1943 -1944 0
-1943 -1945 0
-1943 -1946 0
-1943 -1947 0
-1943 -1948 0
-1943 -1949 0
-1943 -1950 0
-1943 -1951 0
-1943 -1952 0
-1944 -1945 0
-1944 -1946 0
-1944 -1947 0
-1944 -1948 0
-1944 -1949 0
-1944 -1950 0
-1944 -1951 0
-1944 -1952 0
-1945 -1946 0
-1945 -1947 0
-1945 -1948 0
-1945 -1949 0
-1945 -1950 0
-1945 -1951 0
-1945 -1952 0
-1946 -1947 0
-1946 -1948 0
-1946 -1949 0
-1946 -1950 0
-1946 -1951 0
-1946 -1952 0
-1947 -1948 0
-1947 -1949 0
-1947 -1950 0
-1947 -1951 0
-1947 -1952 0
-1948 -1949 0
-1948 -1950 0
-1948 -1951 0
-1948 -1952 0
-1949 -1950 0
-1949 -1951 0
-1949 -1952 0
-1950 -1951 0
-1950 -1952 0
-1951 -1952 0
1953 1954 1955 1956 1957 1958 1959 1960 1961 1962 1963 1964 1965 1966 1967 1968 0
-1953 -1954 0
-1953 -1955 0
-1953 -1956 0
-1953 -1957 0
-1953 -1958 0
-1953 -1959 0
-1953 -1960 0
-1953 -1961 0
-1953 -1962 0
-1953 -1963 0
-1953 -1964 0
-1953 -1965 0
-1953 -1966 0
-1953 -1967 0
-1953 -1968 0
-1954 -1955 0
-1954 -1956 0
-1954 -1957 0
-1954 -1958 0
-1954 -1959 0
-1954 -1960 0
-1954 -1961 0
-1954 -1962 0
-1954 -1963 0
-1954 -1964 0
-1954 -1965 0
-1954 -1966 0
-1954 -1967 0
-1954 -1968 0
-1955 -1956 0
-1955 -1957 0
-1955 -1958 0
-1955 -1959 0
-1955 -1960 0
-1955 -1961 0
-1955 -1962 0
-1955 -1963 0
-1955 -1964 0
-1955 -1965 0
-1955 -1966 0
-1955 -1967 0
-1955 -1968 0
-1956 -1957 0
-1956 -1958 0
-1956 -1959 0
-1956 -1960 0
-1956 -1961 0
-1956 -1962 0
-1956 -1963 0
-1956 -1964 0
-1956 -1965 0
-1956 -1966 0
-1956 -1967 0
-1956 -1968 0
-1957 -1958 0
-1957 -1959 0
-1957 -1960 0
-1957 -1961 0
-1957 -1962 0
-1957 -1963 0
-1957 -1964 0
-1957 -1965 0
-1957 -1966 0
-1957 -1967 0
-1957 -1968 0
-1958 -1959 0
-1958 -1960 0
-1958 -1961 0
-1958 -1962 0
-1958 -1963 0
-1958 -1964 0
-1958 -1965 0
-1958 -1966 0
-1958 -1967 0
-1958 -1968 0
-1959 -1960 0
-1959 -1961 0
-1959 -1962 0
-1959 -1963 0
-1959 -1964 0
-1959 -1965 0
-1959 -1966 0
-1959 -1967 0
-1959 -1968 0
-1960 -1961 0
-1960 -1962 0
-1960 -1963 0
-1960 -1964 0
-1960 -1965 0
-1960 -1966 0
-1960 -1967 0
-1960 -1968 0
-1961 -1962 0
-1961 -1963 0
-1961 -1964 0
-1961 -1965 0
-1961 -1966 0
-1961 -1967 0
-1961 -1968 0
-1962 -1963 0
-1962 -1964 0
-1962 -1965 0
-1962 -1966 0
-1962 -1967 0
-1962 -1968 0
-1963 -1964 0
-1963 -1965 0
-1963 -1966 0
-1963 -1967 0
-1963 -1968 0
-1964 -1965 0
-1964 -1966 0
-1964 -1967 0
-1964 -1968 0
-1965 -1966 0
-1965 -1967 0
-1965 -1968 0
-1966 -1967 0
-1966 -1968 0
-1967 -1968 0
1969 1970 1971 1972 1973 1974 1975 1976 1977 1978 1979 1980 1981 1982 1983 1984 0
-1969 -1970 0
-1969 -1971 0
-1969 -1972 0
-1969 -1973 0
-1969 -1974 0
-1969 -1975 0
-1969 -1976 0
-1969 -1977 0
-1969 -1978 0
-1969 -1979 0
-1969 -1980 0
-1969 -1981 0
-1969 -1982 0
-1969 -1983 0
-1969 -1984 0
-1970 -1971 0
-1970 -1972 0
-1970 -1973 0
-1970 -1974 0
-1970 -1975 0
-1970 -1976 0
-1970 -1977 0
-1970 -1978 0
-1970 -1979 0
-1970 -1980 0
-1970 -1981 0
-1970 -1982 0
-1970 -1983 0
-1970 -1984 0
-1971 -1972 0
-1971 -1973 0
-1971 -1974 0
-1971 -1975 0
-1971 -1976 0
-1971 -1977 0
-1971 -1978 0
-1971 -1979 0
-1971 -1980 0
-1971 -1981 0
-1971 -1982 0
-1971 -1983 0
-1971 -1984 0
-1972 -1973 0
-1972 -1974 0
-1972 -1975 0
-1972 -1976 0
-1972 -1977 0
-1972 -1978 0
-1972 -1979 0
-1972 -1980 0
-1972 -1981 0
-1972 -1982 0
-1972 -1983 0
-1972 -1984 0
-1973 -1974 0
-1973 -1975 0
-1973 -1976 0
-1973 -1977 0
-1973 -1978 0
-1973 -1979 0
-1973 -1980 0
-1973 -1981 0
-1973 -1982 0
-1973 -1983 0
-1973 -1984 0
-1974 -1975 0
-1974 -1976 0
-1974 -1977 0
-1974 -1978 0
-1974 -1979 0
-1974 -1980 0
-1974 -1981 0
-1974 -1982 0
-1974 -1983 0
-1974 -1984 0
-1975 -1976 0
-1975 -1977 0
-1975 -1978 0
-1975 -1979 0
-1975 -1980 0
-1975 -1981 0
-1975 -1982 0
-1975 -1983 0
-1975 -1984 0
-1976 -1977 0
-1976 -1978 0
-1976 -1979 0
-1976 -1980 0
-1976 -1981 0
-1976 -1982 0
-1976 -1983 0
-1976 -1984 0
-1977 -1978 0
-1977 -1979 0
-1977 -1980 0
-1977 -1981 0
-1977 -1982 0
-1977 -1983 0
-1977 -1984 0
-1978 -1979 0
-1978 -1980 0
-1978 -1981 0
-1978 -1982 0
-1978 -1983 0
-1978 -1984 0
-1979 -1980 0
-1979 -1981 0
-1979 -1982 0
-1979 -1983 0
-1979 -1984 0
-1980 -1981 0
-1980 -1982 0
-1980 -1983 0
-1980 -1984 0
-1981 -1982 0
-1981 -1983 0
-1981 -1984 0
-1982 -1983 0
-1982 -1984 0
-1983 -1984 0
1985 1986 1987 1988 1989 1990 1991 1992 1993 1994 1995 1996 1997 1998 1999 2000 0
-1985 -1986 0
-1985 -1987 0
-1985 -1988 0
-1985 -1989 0
-1985 -1990 0
-1985 -1991 0
-1985 -1992 0
-1985 -1993 0
-1985 -1994 0
-1985 -1995 0
-1985 -1996 0
-1985 -1997 0
-1985 -1998 0
-1985 -1999 0
-1985 -2000 0
-1986 -1987 0
-1986 -1988 0
-1986 -1989 0
-1986 -1990 0
-1986 -1991 0
-1986 -1992 0
-1986 -1993 0
-1986 -1994 0
-1986 -1995 0
-1986 -1996 0
-1986 -1997 0
-1986 -1998 0
-1986 -1999 0
-1986 -2000 0
-1987 -1988 0
-1987 -1989 0
-1987 -1990 0
-1987 -1991 0
-1987 -1992 0
-1987 -1993 0
-1987 -1994 0
-1987 -1995 0
-1987 -1996 0
-1987 -1997 0
-1987 -1998 0
-1987 -1999 0
-1987 -2000 0
-1988 -1989 0
-1988 -1990 0
-1988 -1991 0
-1988 -1992 0
-1988 -1993 0
-1988 -1994 0
-1988 -1995 0
-1988 -1996 0
-1988 -1997 0
-1988 -1998 0
-1988 -1999 0
-1988 -2000 0
-1989 -1990 0
-1989 -1991 0
-1989 -1992 0
-1989 -1993 0
-1989 -1994 0
-1989 -1995 0
-1989 -1996 0
-1989 -1997 0
-1989 -1998 0
-1989 -1999 0
-1989 -2000 0
-1990 -1991 0
-1990 -1992 0
-1990 -1993 0
-1990 -1994 0
-1990 -1995 0
-1990 -1996 0
-1990 -1997 0
-1990 -1998 0
-1990 -1999 0
-1990 -2000 0
-1991 -1992 0
-1991 -1993 0
-1991 -1994 0
-1991 -1995 0
-1991 -1996 0
-1991 -1997 0
-1991 -1998 0
-1991 -1999 0
-1991 -2000 0
-1992 -1993 0
-1992 -1994 0
-1992 -1995 0
-1992 -1996 0
-1992 -1997 0
-1992 -1998 0
-1992 -1999 0
-1992 -2000 0
-1993 -1994 0
-1993 -1995 0
-1993 -1996 0
-1993 -1997 0
-1993 -1998 0
-1993 -1999 0
-1993 -2000 0
-1994 -1995 0
-1994 -1996 0
-1994 -1997 0
-1994 -1998 0
-1994 -1999 0
-1994 -2000 0
-1995 -1996 0
-1995 -1997 0
-1995 -1998 0
-1995 -1999 0
-1995 -2000 0
-1996 -1997 0
-1996 -1998 0
-1996 -1999 0
-1996 -2000 0
-1997 -1998 0
-1997 -1999 0
-1997 -2000 0
-1998 -1999 0
-1998 -2000 0
-1999 -2000 0
2001 2002 2003 2004 2005 2006 2007 2008 2009 2010 2011 2012 2013 2014 2015 2016 0
-2001 -2002 0
-2001 -2003 0
-2001 -2004 0
-2001 -2005 0
-2001 -2006 0
-2001 -2007 0
-2001 -2008 0
-2001 -2009 0
-2001 -2010 0
-2001 -2011 0
-2001 -2012 0
-2001 -2013 0
-2001 -2014 0
-2001 -2015 0
-2001 -2016 0
-2002 -2003 0
-2002 -2004 0
-2002 -2005 0
-2002 -2006 0
-2002 -2007 0
-2002 -2008 0
-2002 -2009 0
-2002 -2010 0
-2002 -2011 0
-2002 -2012 0
-2002 -2013 0
-2002 -2014 0
-2002 -2015 0
-2002 -2016 0
-2003 -2004 0
-2003 -2005 0
-2003 -2006 0
-2003 -2007 0
-2003 -2008 0
-2003 -2009 0
-2003 -2010 0
-2003 -2011 0
-2003 -2012 0
-2003 -2013 0
-2003 -2014 0
-2003 -2015 0
-2003 -2016 0
-2004 -2005 0
-2004 -2006 0
-2004 -2007 0
-2004 -2008 0
-2004 -2009 0
-2004 -2010 0
-2004 -2011 0
-2004 -2012 0
-2004 -2013 0
-2004 -2014 0
-2004 -2015 0
-2004 -2016 0
-2005 -2006 0
-2005 -2007 0
-2005 -2008 0
-2005 -2009 0
-2005 -2010 0
-2005 -2011 0
-2005 -2012 0
-2005 -2013 0
-2005 -2014 0
-2005 -2015 0
-2005 -2016 0
-2006 -2007 0
-2006 -2008 0
-2006 -2009 0
-2006 -2010 0
-2006 -2011 0
-2006 -2012 0
-2006 -2013 0
-2006 -2014 0
-2006 -2015 0
-2006 -2016 0
-2007 -2008 0
-2007 -2009 0
-2007 -2010 0
-2007 -2011 0
-2007 -2012 0
-2007 -2013 0
-2007 -2014 0
-2007 -2015 0
-2007 -2016 0
-2008 -2009 0
-2008 -2010 0
-2008 -2011 0
-2008 -2012 0
-2008 -2013 0
-2008 -2014 0
-2008 -2015 0
-2008 -2016 0
-2009 -2010 0
-2009 -2011 0
-2009 -2012 0
-2009 -2013 0
-2009 -2014 0
-2009 -2015 0
-2009 -2016 0
-2010 -2011 0
-2010 -2012 0
-2010 -2013 0
-2010 -2014 0
-2010 -2015 0
-2010 -2016 0
-2011 -2012 0
-2011 -2013 0
-2011 -2014 0
-2011 -2015 0
-2011 -2016 0
-2012 -2013 0
-2012 -2014 0
-2012 -2015 0
-2012 -2016 0
-2013 -2014 0
-2013 -2015 0
-2013 -2016 0
-2014 -2015 0
-2014 -2016 0
-2015 -2016 0
2017 2018 2019 2020 2021 2022 2023 2024 2025 2026 2027 2028 2029 2030 2031 2032 0
-2017 -2018 0
-2017 -2019 0
-2017 -2020 0
-2017 -2021 0
-2017 -2022 0
-2017 -2023 0
-2017 -2024 0
-2017 -2025 0
-2017 -2026 0
-2017 -2027 0
-2017 -2028 0
-2017 -2029 0
-2017 -2030 0
-2017 -2031 0
-2017 -2032 0
-2018 -2019 0
-2018 -2020 0
-2018 -2021 0
-2018 -2022 0
-2018 -2023 0
-2018 -2024 0
-2018 -2025 0
-2018 -2026 0
-2018 -2027 0
-2018 -2028 0
-2018 -2029 0
-2018 -2030 0
-2018 -2031 0
-2018 -2032 0
-2019 -2020 0
-2019 -2021 0
-2019 -2022 0
-2019 -2023 0
-2019 -2024 0
-2019 -2025 0
-2019 -2026 0
-2019 -2027 0
-2019 -2028 0
-2019 -2029 0
-2019 -2030 0
-2019 -2031 0
-2019 -2032 0
-2020 -2021 0
-2020 -2022 0
-2020 -2023 0
-2020 -2024 0
-2020 -2025 0
-2020 -2026 0
-2020 -2027 0
-2020 -2028 0
-2020 -2029 0
-2020 -2030 0
-2020 -2031 0
-2020 -2032 0
-2021 -2022 0
-2021 -2023 0
-2021 -2024 0
-2021 -2025 0
-2021 -2026 0
-2021 -2027 0
-2021 -2028 0
-2021 -2029 0
-2021 -2030 0
-2021 -2031 0
-2021 -2032 0
-2022 -2023 0
-2022 -2024 0
-2022 -2025 0
-2022 -2026 0
-2022 -2027 0
-2022 -2028 0
-2022 -2029 0
-2022 -2030 0
-2022 -2031 0
-2022 -2032 0
-2023 -2024 0
-2023 -2025 0
-2023 -2026 0
-2023 -2027 0
-2023 -2028 0
-2023 -2029 0
-2023 -2030 0
-2023 -2031 0
-2023 -2032 0
-2024 -2025 0
-2024 -2026 0
-2024 -2027 0
-2024 -2028 0
-2024 -2029 0
-2024 -2030 0
-2024 -2031 0
-2024 -2032 0
-2025 -2026 0
-2025 -2027 0
-2025 -2028 0
-2025 -2029 0
-2025 -2030 0
-2025 -2031 0
-2025 -2032 0
-2026 -2027 0
-2026 -2028 0
-2026 -2029 0
-2026 -2030 0
-2026 -2031 0
-2026 -2032 0
-2027 -2028 0
-2027 -2029 0
-2027 -2030 0
-2027 -2031 0
-2027 -2032 0
-2028 -2029 0
-2028 -2030 0
-2028 -2031 0
-2028 -2032 0
-2029 -2030 0
-2029 -2031 0
-2029 -2032 0
-2030 -2031 0
-2030 -2032 0
-2031 -2032 0
2033 2034 2035 2036 2037 2038 2039 2040 2041 2042 2043 2044 2045 2046 2047 2048 0
-2033 -2034 0
-2033 -2035 0
-2033 -2036 0
-2033 -2037 0
-2033 -2038 0
-2033 -2039 0
-2033 -2040 0
-2033 -2041 0
-2033 -2042 0
-2033 -2043 0
-2033 -2044 0
-2033 -2045 0
-2033 -2046 0
-2033 -2047 0
-2033 -2048 0
-2034 -2035 0
-2034 -2036 0
-2034 -2037 0
-2034 -2038 0
-2034 -2039 0
-2034 -2040 0
-2034 -2041 0
-2034 -2042 0
-2034 -2043 0
-2034 -2044 0
-2034 -2045 0
-2034 -2046 0
-2034 -2047 0
-2034 -2048 0
-2035 -2036 0
-2035 -2037 0
-2035 -2038 0
-2035 -2039 0
-2035 -2040 0
-2035 -2041 0
-2035 -2042 0
-2035 -2043 0
-2035 -2044 0
-2035 -2045 0
-2035 -2046 0
-2035 -2047 0
-2035 -2048 0
-2036 -2037 0
-2036 -2038 0
-2036 -2039 0
-2036 -2040 0
-2036 -2041 0
-2036 -2042 0
-2036 -2043 0
-2036 -2044 0
-2036 -2045 0
-2036 -2046 0
-2036 -2047 0
-2036 -2048 0
-2037 -2038 0
-2037 -2039 0
-2037 -2040 0
-2037 -2041 0
-2037 -2042 0
-2037 -2043 0
-2037 -2044 0
-2037 -2045 0
-2037 -2046 0
-2037 -2047 0
-2037 -2048 0
-2038 -2039 0
-2038 -2040 0
-2038 -2041 0
-2038 -2042 0
-2038 -2043 0
-2038 -2044 0
-2038 -2045 0
-2038 -2046 0
-2038 -2047 0
-2038 -2048 0
-2039 -2040 0
-2039 -2041 0
-2039 -2042 0
-2039 -2043 0
-2039 -2044 0
-2039 -2045 0
-2039 -2046 0
-2039 -2047 0
-2039 -2048 0
-2040 -2041 0
-2040 -2042 0
-2040 -2043 0
-2040 -2044 0
-2040 -2045 0
-2040 -2046 0
-2040 -2047 0
-2040 -2048 0
-2041 -2042 0
-2041 -2043 0
-2041 -2044 0
-2041 -2045 0
-2041 -2046 0
-2041 -2047 0
-2041 -2048 0
-2042 -2043 0
-2042 -2044 0
-2042 -2045 0
-2042 -2046 0
-2042 -2047 0
-2042 -2048 0
-2043 -2044 0
-2043 -2045 0
-2043 -2046 0
-2043 -2047 0
-2043 -2048 0
-2044 -2045 0
-2044 -2046 0
-2044 -2047 0
-2044 -2048 0
-2045 -2046 0
-2045 -2047 0
-2045 -2048 0
-2046 -2047 0
-2046 -2048 0
-2047 -2048 0
2049 2050 2051 2052 2053 2054 2055 2056 2057 2058 2059 2060 2061 2062 2063 2064 0
-2049 -2050 0
-2049 -2051 0
-2049 -2052 0
-2049 -2053 0
-2049 -2054 0
-2049 -2055 0
-2049 -2056 0
-2049 -2057 0
-2049 -2058 0
-2049 -2059 0
-2049 -2060 0
-2049 -2061 0
-2049 -2062 0
-2049 -2063 0
-2049 -2064 0
-2050 -2051 0
-2050 -2052 0
-2050 -2053 0
-2050 -2054 0
-2050 -2055 0
-2050 -2056 0
-2050 -2057 0
-2050 -2058 0
-2050 -2059 0
-2050 -2060 0
-2050 -2061 0
-2050 -2062 0
-2050 -2063 0
-2050 -2064 0
-2051 -2052 0
-2051 -2053 0
-2051 -2054 0
-2051 -2055 0
-2051 -2056 0
-2051 -2057 0
-2051 -2058 0
-2051 -2059 0
-2051 -2060 0
-2051 -2061 0
-2051 -2062 0
-2051 -2063 0
-2051 -2064 0
-2052 -2053 0
-2052 -2054 0
-2052 -2055 0
-2052 -2056 0
-2052 -2057 0
-2052 -2058 0
-2052 -2059 0
-2052 -2060 0
-2052 -2061 0
-2052 -2062 0
-2052 -2063 0
-2052 -2064 0
-2053 -2054 0
-2053 -2055 0
-2053 -2056 0
-2053 -2057 0
-2053 -2058 0
-2053 -2059 0
-2053 -2060 0
-2053 -2061 0
-2053 -2062 0
-2053 -2063 0
-2053 -2064 0
-2054 -2055 0
-2054 -2056 0
-2054 -2057 0
-2054 -2058 0
-2054 -2059 0
-2054 -2060 0
-2054 -2061 0
-2054 -2062 0
-2054 -2063 0
-2054 -2064 0
-2055 -2056 0
-2055 -2057 0
-2055 -2058 0
-2055 -2059 0
-2055 -2060 0
-2055 -2061 0
-2055 -2062 0
-2055 -2063 0
-2055 -2064 0
-2056 -2057 0
-2056 -2058 0
-2056 -2059 0
-2056 -2060 0
-2056 -2061 0
-2056 -2062 0
-2056 -2063 0
-2056 -2064 0
-2057 -2058 0
-2057 -2059 0
-2057 -2060 0
-2057 -2061 0
-2057 -2062 0
-2057 -2063 0
-2057 -2064 0
-2058 -2059 0
-2058 -2060 0
-2058 -2061 0
-2058 -2062 0
-2058 -2063 0
-2058 -2064 0
-2059 -2060 0
-2059 -2061 0
-2059 -2062 0
-2059 -2063 0
-2059 -2064 0
-2060 -2061 0
-2060 -2062 0
-2060 -2063 0
-2060 -2064 0
-2061 -2062 0
-2061 -2063 0
-2061 -2064 0
-2062 -2063 0
-2062 -2064 0
-2063 -2064 0
2065 2066 2067 2068 2069 2070 2071 2072 2073 2074 2075 2076 2077 2078 2079 2080 0
-2065 -2066 0
-2065 -2067 0
-2065 -2068 0
-2065 -2069 0
-2065 -2070 0
-2065 -2071 0
-2065 -2072 0
-2065 -2073 0
-2065 -2074 0
-2065 -2075 0
-2065 -2076 0
-2065 -2077 0
-2065 -2078 0
-2065 -2079 0
-2065 -2080 0
-2066 -2067 0
-2066 -2068 0
-2066 -2069 0
-2066 -2070 0
-2066 -2071 0
-2066 -2072 0
-2066 -2073 0
-2066 -2074 0
-2066 -2075 0
-2066 -2076 0
-2066 -2077 0
-2066 -2078 0
-2066 -2079 0
-2066 -2080 0
-2067 -2068 0
-2067 -2069 0
-2067 -2070 0
-2067 -2071 0
-2067 -2072 0
-2067 -2073 0
-2067 -2074 0
-2067 -2075 0
-2067 -2076 0
-2067 -2077 0
-2067 -2078 0
-2067 -2079 0
-2067 -2080 0
-2068 -2069 0
-2068 -2070 0
-2068 -2071 0
-2068 -2072 0
-2068 -2073 0
-2068 -2074 0
-2068 -2075 0
-2068 -2076 0
-2068 -2077 0
-2068 -2078 0
-2068 -2079 0
-2068 -2080 0
-2069 -2070 0
-2069 -2071 0
-2069 -2072 0
-2069 -2073 0
-2069 -2074 0
-2069 -2075 0
-2069 -2076 0
-2069 -2077 0
-2069 -2078 0
-2069 -2079 0
-2069 -2080 0
-2070 -2071 0
-2070 -2072 0
-2070 -2073 0
-2070 -2074 0
-2070 -2075 0
-2070 -2076 0
-2070 -2077 0
-2070 -2078 0
-2070 -2079 0
-2070 -2080 0
-2071 -2072 0
-2071 -2073 0
-2071 -2074 0
-2071 -2075 0
-2071 -2076 0
-2071 -2077 0
-2071 -2078 0
-2071 -2079 0
-2071 -2080 0
-2072 -2073 0
-2072 -2074 0
-2072 -2075 0
-2072 -2076 0
-2072 -2077 0
-2072 -2078 0
-2072 -2079 0
-2072 -2080 0
-2073 -2074 0
-2073 -2075 0
-2073 -2076 0
-2073 -2077 0
-2073 -2078 0
-2073 -2079 0
-2073 -2080 0
-2074 -2075 0
-2074 -2076 0
-2074 -2077 0
-2074 -2078 0
-2074 -2079 0
-2074 -2080 0
-2075 -2076 0
-2075 -2077 0
-2075 -2078 0
-2075 -2079 0
-2075 -2080 0
-2076 -2077 0
-2076 -2078 0
-2076 -2079 0
-2076 -2080 0
-2077 -2078 0
-2077 -2079 0
-2077 -2080 0
-2078 -2079 0
-2078 -2080 0
-2079 -2080 0
2081 2082 2083 2084 2085 2086 2087 2088 2089 2090 2091 2092 2093 2094 2095 2096 0
-2081 -2082 0
-2081 -2083 0
-2081 -2084 0
-2081 -2085 0
-2081 -2086 0
-2081 -2087 0
-2081 -2088 0
-2081 -2089 0
-2081 -2090 0
-2081 -2091 0
-2081 -2092 0
-2081 -2093 0
-2081 -2094 0
-2081 -2095 0
-2081 -2096 0
-2082 -2083 0
-2082 -2084 0
-2082 -2085 0
-2082 -2086 0
-2082 -2087 0
-2082 -2088 0
-2082 -2089 0
-2082 -2090 0
-2082 -2091 0
-2082 -2092 0
-2082 -2093 0
-2082 -2094 0
-2082 -2095 0
-2082 -2096 0
-2083 -2084 0
-2083 -2085 0
-2083 -2086 0
-2083 -2087 0
-2083 -2088 0
-2083 -2089 0
-2083 -2090 0
-2083 -2091 0
-2083 -2092 0
-2083 -2093 0
-2083 -2094 0
-2083 -2095 0
-2083 -2096 0
-2084 -2085 0
-2084 -2086 0
-2084 -2087 0
-2084 -2088 0
-2084 -2089 0
-2084 -2090 0
-2084 -2091 0
-2084 -2092 0
-2084 -2093 0
-2084 -2094 0
-2084 -2095 0
-2084 -2096 0
-2085 -2086 0
-2085 -2087 0
-2085 -2088 0
-2085 -2089 0
-2085 -2090 0
-2085 -2091 0
-2085 -2092 0
-2085 -2093 0
-2085 -2094 0
-2085 -2095 0
-2085 -2096 0
-2086 -2087 0
-2086 -2088 0
-2086 -2089 0
-2086 -2090 0
-2086 -2091 0
-2086 -2092 0
-2086 -2093 0
-2086 -2094 0
-2086 -2095 0
-2086 -2096 0
-2087 -2088 0
-2087 -2089 0
-2087 -2090 0
-2087 -2091 0
-2087 -2092 0
-2087 -2093 0
-2087 -2094 0
-2087 -2095 0
-2087 -2096 0
-2088 -2089 0
-2088 -2090 0
-2088 -2091 0
-2088 -2092 0
-2088 -2093 0
-2088 -2094 0
-2088 -2095 0
-2088 -2096 0
-2089 -2090 0
-2089 -2091 0
-2089 -2092 0
-2089 -2093 0
-2089 -2094 0
-2089 -2095 0
-2089 -2096 0
-2090 -2091 0
-2090 -2092 0
-2090 -2093 0
-2090 -2094 0
-2090 -2095 0
-2090 -2096 0
-2091 -2092 0
-2091 -2093 0
-2091 -2094 0
-2091 -2095 0
-2091 -2096 0
-2092 -2093 0
-2092 -2094 0
-2092 -2095 0
-2092 -2096 0
-2093 -2094 0
-2093 -2095 0
-2093 -2096 0
-2094 -2095 0
-2094 -2096 0
-2095 -2096 0
2097 2098 2099 2100 2101 2102 2103 2104 2105 2106 2107 2108 2109 2110 2111 2112 0
-2097 -2098 0
-2097 -2099 0
-2097 -2100 0
-2097 -2101 0
-2097 -2102 0
-2097 -2103 0
-2097 -2104 0
-2097 -2105 0
-2097 -2106 0
-2097 -2107 0
-2097 -2108 0
-2097 -2109 0
-2097 -2110 0
-2097 -2111 0
-2097 -2112 0
-2098 -2099 0
-2098 -2100 0
-2098 -2101 0
-2098 -2102 0
-2098 -2103 0
-2098 -2104 0
-2098 -2105 0
-2098 -2106 0
-2098 -2107 0
-2098 -2108 0
-2098 -2109 0
-2098 -2110 0
-2098 -2111 0
-2098 -2112 0
-2099 -2100 0
-2099 -2101 0
-2099 -2102 0
-2099 -2103 0
-2099 -2104 0
-2099 -2105 0
-2099 -2106 0
-2099 -2107 0
-2099 -2108 0
-2099 -2109 0
-2099 -2110 0
-2099 -2111 0
-2099 -2112 0
-2100 -2101 0
-2100 -2102 0
-2100 -2103 0
-2100 -2104 0
-2100 -2105 0
-2100 -2106 0
-2100 -2107 0
-2100 -2108 0
-2100 -2109 0
-2100 -2110 0
-2100 -2111 0
-2100 -2112 0
-2101 -2102 0
-2101 -2103 0
-2101 -2104 0
-2101 -2105 0
-2101 -2106 0
-2101 -2107 0
-2101 -2108 0
-2101 -2109 0
-2101 -2110 0
-2101 -2111 0
-2101 -2112 0
-2102 -2103 0
-2102 -2104 0
-2102 -2105 0
-2102 -2106 0
-2102 -2107 0
-2102 -2108 0
-2102 -2109 0
-2102 -2110 0
-2102 -2111 0
-2102 -2112 0
-2103 -2104 0
-2103 -2105 0
-2103 -2106 0
-2103 -2107 0
-2103 -2108 0
-2103 -2109 0
-2103 -2110 0
-2103 -2111 0
-2103 -2112 0
-2104 -2105 0
-2104 -2106 0
-2104 -2107 0
-2104 -2108 0
-2104 -2109 0
-2104 -2110 0
-2104 -2111 0
-2104 -2112 0
-2105 -2106 0
-2105 -2107 0
-2105 -2108 0
-2105 -2109 0
-2105 -2110 0
-2105 -2111 0
-2105 -2112 0
-2106 -2107 0
-2106 -2108 0
-2106 -2109 0
-2106 -2110 0
-2106 -2111 0
-2106 -2112 0
-2107 -2108 0
-2107 -2109 0
-2107 -2110 0
-2107 -2111 0
-2107 -2112 0
-2108 -2109 0
-2108 -2110 0
-2108 -2111 0
-2108 -2112 0
-2109 -2110 0
-2109 -2111 0
-2109 -2112 0
-2110 -2111 0
-2110 -2112 0
-2111 -2112 0
2113 2114 2115 2116 2117 2118 2119 2120 2121 2122 2123 2124 2125 2126 2127 2128 0
-2113 -2114 0
-2113 -2115 0
-2113 -2116 0
-2113 -2117 0
-2113 -2118 0
-2113 -2119 0
-2113 -2120 0
-2113 -2121 0
-2113 -2122 0
-2113 -2123 0
-2113 -2124 0
-2113 -2125 0
-2113 -2126 0
-2113 -2127 0
-2113 -2128 0
-2114 -2115 0
-2114 -2116 0
-2114 -2117 0
-2114 -2118 0
-2114 -2119 0
-2114 -2120 0
-2114 -2121 0
-2114 -2122 0
-2114 -2123 0
-2114 -2124 0
-2114 -2125 0
-2114 -2126 0
-2114 -2127 0
-2114 -2128 0
-2115 -2116 0
-2115 -2117 0
-2115 -2118 0
-2115 -2119 0
-2115 -2120 0
-2115 -2121 0
-2115 -2122 0
-2115 -2123 0
-2115 -2124 0
-2115 -2125 0
-2115 -2126 0
-2115 -2127 0
-2115 -2128 0
-2116 -2117 0
-2116 -2118 0
-2116 -2119 0
-2116 -2120 0
-2116 -2121 0
-2116 -2122 0
-2116 -2123 0
-2116 -2124 0
-2116 -2125 0
-2116 -2126 0
-2116 -2127 0
-2116 -2128 0
-2117 -2118 0
-2117 -2119 0
-2117 -2120 0
-2117 -2121 0
-2117 -2122 0
-2117 -2123 0
-2117 -2124 0
-2117 -2125 0
-2117 -2126 0
-2117 -2127 0
-2117 -2128 0
-2118 -2119 0
-2118 -2120 0
-2118 -2121 0
-2118 -2122 0
-2118 -2123 0
-2118 -2124 0
-2118 -2125 0
-2118 -2126 0
-2118 -2127 0
-2118 -2128 0
-2119 -2120 0
-2119 -2121 0
-2119 -2122 0
-2119 -2123 0
-2119 -2124 0
-2119 -2125 0
-2119 -2126 0
-2119 -2127 0
-2119 -2128 0
-2120 -2121 0
-2120 -2122 0
-2120 -2123 0
-2120 -2124 0
-2120 -2125 0
-2120 -2126 0
-2120 -2127 0
-2120 -2128 0
-2121 -2122 0
-2121 -2123 0
-2121 -2124 0
-2121 -2125 0
-2121 -2126 0
-2121 -2127 0
-2121 -2128 0
-2122 -2123 0
-2122 -2124 0
-2122 -2125 0
-2122 -2126 0
-2122 -2127 0
-2122 -2128 0
-2123 -2124 0
-2123 -2125 0
-2123 -2126 0
-2123 -2127 0
-2123 -2128 0
-2124 -2125 0
-2124 -2126 0
-2124 -2127 0
-2124 -2128 0
-2125 -2126 0
-2125 -2127 0
-2125 -2128 0
-2126 -2127 0
-2126 -2128 0
-2127 -2128 0
2129 2130 2131 2132 2133 2134 2135 2136 2137 2138 2139 2140 2141 2142 2143 2144 0
-2129 -2130 0
-2129 -2131 0
-2129 -2132 0
-2129 -2133 0
-2129 -2134 0
-2129 -2135 0
-2129 -2136 0
-2129 -2137 0
-2129 -2138 0
-2129 -2139 0
-2129 -2140 0
-2129 -2141 0
-2129 -2142 0
-2129 -2143 0
-2129 -2144 0
-2130 -2131 0
-2130 -2132 0
-2130 -2133 0
-2130 -2134 0
-2130 -2135 0
-2130 -2136 0
-2130 -2137 0
-2130 -2138 0
-2130 -2139 0
-2130 -2140 0
-2130 -2141 0
-2130 -2142 0
-2130 -2143 0
-2130 -2144 0
-2131 -2132 0
-2131 -2133 0
-2131 -2134 0
-2131 -2135 0
-2131 -2136 0
-2131 -2137 0
-2131 -2138 0
-2131 -2139 0
-2131 -2140 0
-2131 -2141 0
-2131 -2142 0
-2131 -2143 0
-2131 -2144 0
-2132 -2133 0
-2132 -2134 0
-2132 -2135 0
-2132 -2136 0
-2132 -2137 0
-2132 -2138 0
-2132 -2139 0
-2132 -2140 0
-2132 -2141 0
-2132 -2142 0
-2132 -2143 0
-2132 -2144 0
-2133 -2134 0
-2133 -2135 0
-2133 -2136 0
-2133 -2137 0
-2133 -2138 0
-2133 -2139 0
-2133 -2140 0
-2133 -2141 0
-2133 -2142 0
-2133 -2143 0
-2133 -2144 0
-2134 -2135 0
-2134 -2136 0
-2134 -2137 0
-2134 -2138 0
-2134 -2139 0
-2134 -2140 0
-2134 -2141 0
-2134 -2142 0
-2134 -2143 0
-2134 -2144 0
-2135 -2136 0
-2135 -2137 0
-2135 -2138 0
-2135 -2139 0
-2135 -2140 0
-2135 -2141 0
-2135 -2142 0
-2135 -2143 0
-2135 -2144 0
-2136 -2137 0
-2136 -2138 0
-2136 -2139 0
-2136 -2140 0
-2136 -2141 0
-2136 -2142 0
-2136 -2143 0
-2136 -2144 0
-2137 -2138 0
-2137 -2139 0
-2137 -2140 0
-2137 -2141 0
-2137 -2142 0
-2137 -2143 0
-2137 -2144 0
-2138 -2139 0
-2138 -2140 0
-2138 -2141 0
-2138 -2142 0
-2138 -2143 0
-2138 -2144 0
-2139 -2140 0
-2139 -2141 0
-2139 -2142 0
-2139 -2143 0
-2139 -2144 0
-2140 -2141 0
-2140 -2142 0
-2140 -2143 0
-2140 -2144 0
-2141 -2142 0
-2141 -2143 0
-2141 -2144 0
-2142 -2143 0
-2142 -2144 0
-2143 -2144 0
2145 2146 2147 2148 2149 2150 2151 2152 2153 2154 2155 2156 2157 2158 2159 2160 0
-2145 -2146 0
-2145 -2147 0
-2145 -2148 0
-2145 -2149 0
-2145 -2150 0
-2145 -2151 0
-2145 -2152 0
-2145 -2153 0
-2145 -2154 0
-2145 -2155 0
-2145 -2156 0
-2145 -2157 0
-2145 -2158 0
-2145 -2159 0
-2145 -2160 0
-2146 -2147 0
-2146 -2148 0
-2146 -2149 0
-2146 -2150 0
-2146 -2151 0
-2146 -2152 0
-2146 -2153 0
-2146 -2154 0
-2146 -2155 0
-2146 -2156 0
-2146 -2157 0
-2146 -2158 0
-2146 -2159 0
-2146 -2160 0
-2147 -2148 0
-2147 -2149 0
-2147 -2150 0
-2147 -2151 0
-2147 -2152 0
-2147 -2153 0
-2147 -2154 0
-2147 -2155 0
-2147 -2156 0
-2147 -2157 0
-2147 -2158 0
-2147 -2159 0
-2147 -2160 0
-2148 -2149 0
-2148 -2150 0
-2148 -2151 0
-2148 -2152 0
-2148 -2153 0
-2148 -2154 0
-2148 -2155 0
-2148 -2156 0
-2148 -2157 0
-2148 -2158 0
-2148 -2159 0
-2148 -2160 0
-2149 -2150 0
-2149 -2151 0
-2149 -2152 0
-2149 -2153 0
-2149 -2154 0
-2149 -2155 0
-2149 -2156 0
-2149 -2157 0
-2149 -2158 0
-2149 -2159 0
-2149 -2160 0
-2150 -2151 0
-2150 -2152 0
-2150 -2153 0
-2150 -2154 0
-2150 -2155 0
-2150 -2156 0
-2150 -2157 0
-2150 -2158 0
-2150 -2159 0
-2150 -2160 0
-2151 -2152 0
-2151 -2153 0
-2151 -2154 0
-2151 -2155 0
-2151 -2156 0
-2151 -2157 0
-2151 -2158 0
-2151 -2159 0
-2151 -2160 0
-2152 -2153 0
-2152 -2154 0
-2152 -2155 0
-2152 -2156 0
-2152 -2157 0
-2152 -2158 0
-2152 -2159 0
-2152 -2160 0
-2153 -2154 0
-2153 -2155 0
-2153 -2156 0
-2153 -2157 0
-2153 -2158 0
-2153 -2159 0
-2153 -2160 0
-2154 -2155 0
-2154 -2156 0
-2154 -2157 0
-2154 -2158 0
-2154 -2159 0
-2154 -2160 0
-2155 -2156 0
-2155 -2157 0
-2155 -2158 0
-2155 -2159 0
-2155 -2160 0
-2156 -2157 0
-2156 -2158 0
-2156 -2159 0
-2156 -2160 0
-2157 -2158 0
-2157 -2159 0
-2157 -2160 0
-2158 -2159 0
-2158 -2160 0
-2159 -2160 0
2161 2162 2163 2164 2165 2166 2167 2168 2169 2170 2171 2172 2173 2174 2175 2176 0
-2161 -2162 0
-2161 -2163 0
-2161 -2164 0
-2161 -2165 0
-2161 -2166 0
-2161 -2167 0
-2161 -2168 0
-2161 -2169 0
-2161 -2170 0
-2161 -2171 0
-2161 -2172 0
-2161 -2173 0
-2161 -2174 0
-2161 -2175 0
-2161 -2176 0
-2162 -2163 0
-2162 -2164 0
-2162 -2165 0
-2162 -2166 0
-2162 -2167 0
-2162 -2168 0
-2162 -2169 0
-2162 -2170 0
-2162 -2171 0
-2162 -2172 0
-2162 -2173 0
-2162 -2174 0
-2162 -2175 0
-2162 -2176 0
-2163 -2164 0
-2163 -2165 0
-2163 -2166 0
-2163 -2167 0
-2163 -2168 0
-2163 -2169 0
-2163 -2170 0
-2163 -2171 0
-2163 -2172 0
-2163 -2173 0
-2163 -2174 0
-2163 -2175 0
-2163 -2176 0
-2164 -2165 0
-2164 -2166 0
-2164 -2167 0
-2164 -2168 0
-2164 -2169 0
-2164 -2170 0
-2164 -2171 0
-2164 -2172 0
-2164 -2173 0
-2164 -2174 0
-2164 -2175 0
-2164 -2176 0
-2165 -2166 0
-2165 -2167 0
-2165 -2168 0
-2165 -2169 0
-2165 -2170 0
-2165 -2171 0
-2165 -2172 0
-2165 -2173 0
-2165 -2174 0
-2165 -2175 0
-2165 -2176 0
-2166 -2167 0
-2166 -2168 0
-2166 -2169 0
-2166 -2170 0
-2166 -2171 0
-2166 -2172 0
-2166 -2173 0
-2166 -2174 0
-2166 -2175 0
-2166 -2176 0
-2167 -2168 0
-2167 -2169 0
-2167 -2170 0
-2167 -2171 0
-2167 -2172 0
-2167 -2173 0
-2167 -2174 0
-2167 -2175 0
-2167 -2176 0
-2168 -2169 0
-2168 -2170 0
-2168 -2171 0
-2168 -2172 0
-2168 -2173 0
-2168 -2174 0
-2168 -2175 0
-2168 -2176 0
-2169 -2170 0
-2169 -2171 0
-2169 -2172 0
-2169 -2173 0
-2169 -2174 0
-2169 -2175 0
-2169 -2176 0
-2170 -2171 0
-2170 -2172 0
-2170 -2173 0
-2170 -2174 0
-2170 -2175 0
-2170 -2176 0
-2171 -2172 0
-2171 -2173 0
-2171 -2174 0
-2171 -2175 0
-2171 -2176 0
-2172 -2173 0
-2172 -2174 0
-2172 -2175 0
-2172 -2176 0
-2173 -2174 0
-2173 -2175 0
-2173 -2176 0
-2174 -2175 0
-2174 -2176 0
-2175 -2176 0
2177 2178 2179 2180 2181 2182 2183 2184 2185 2186 2187 2188 2189 2190 2191 2192 0
-2177 -2178 0
-2177 -2179 0
-2177 -2180 0
-2177 -2181 0
-2177 -2182 0
-2177 -2183 0
-2177 -2184 0
-2177 -2185 0
-2177 -2186 0
-2177 -2187 0
-2177 -2188 0
-2177 -2189 0
-2177 -2190 0
-2177 -2191 0
-2177 -2192 0
-2178 -2179 0
-2178 -2180 0
-2178 -2181 0
-2178 -2182 0
-2178 -2183 0
-2178 -2184 0
-2178 -2185 0
-2178 -2186 0
-2178 -2187 0
-2178 -2188 0
-2178 -2189 0
-2178 -2190 0
-2178 -2191 0
-2178 -2192 0
-2179 -2180 0
-2179 -2181 0
-2179 -2182 0
-2179 -2183 0
-2179 -2184 0
-2179 -2185 0
-2179 -2186 0
-2179 -2187 0
-2179 -2188 0
-2179 -2189 0
-2179 -2190 0
-2179 -2191 0
-2179 -2192 0
-2180 -2181 0
-2180 -2182 0
-2180 -2183 0
-2180 -2184 0
-2180 -2185 0
-2180 -2186 0
-2180 -2187 0
-2180 -2188 0
-2180 -2189 0
-2180 -2190 0
-2180 -2191 0
-2180 -2192 0
-2181 -2182 0
-2181 -2183 0
-2181 -2184 0
-2181 -2185 0
-2181 -2186 0
-2181 -2187 0
-2181 -2188 0
-2181 -2189 0
-2181 -2190 0
-2181 -2191 0
-2181 -2192 0
-2182 -2183 0
-2182 -2184 0
-2182 -2185 0
-2182 -2186 0
-2182 -2187 0
-2182 -2188 0
-2182 -2189 0
-2182 -2190 0
-2182 -2191 0
-2182 -2192 0
-2183 -2184 0
-2183 -2185 0
-2183 -2186 0
-2183 -2187 0
-2183 -2188 0
-2183 -2189 0
-2183 -2190 0
-2183 -2191 0
-2183 -2192 0
-2184 -2185 0
-2184 -2186 0
-2184 -2187 0
-2184 -2188 0
-2184 -2189 0
-2184 -2190 0
-2184 -2191 0
-2184 -2192 0
-2185 -2186 0
-2185 -2187 0
-2185 -2188 0
-2185 -2189 0
-2185 -2190 0
-2185 -2191 0
-2185 -2192 0
-2186 -2187 0
-2186 -2188 0
-2186 -2189 0
-2186 -2190 0
-2186 -2191 0
-2186 -2192 0
-2187 -2188 0
-2187 -2189 0
-2187 -2190 0
-2187 -2191 0
-2187 -2192 0
-2188 -2189 0
-2188 -2190 0
-2188 -2191 0
-2188 -2192 0
-2189 -2190 0
-2189 -2191 0
-2189 -2192 0
-2190 -2191 0
-2190 -2192 0
-2191 -2192 0
2193 2194 2195 2196 2197 2198 2199 2200 2201 2202 2203 2204 2205 2206 2207 2208 0
-2193 -2194 0
-2193 -2195 0
-2193 -2196 0
-2193 -2197 0
-2193 -2198 0
-2193 -2199 0
-2193 -2200 0
-2193 -2201 0
-2193 -2202 0
-2193 -2203 0
-2193 -2204 0
-2193 -2205 0
-2193 -2206 0
-2193 -2207 0
-2193 -2208 0
-2194 -2195 0
-2194 -2196 0
-2194 -2197 0
-2194 -2198 0
-2194 -2199 0
-2194 -2200 0
-2194 -2201 0
-2194 -2202 0
-2194 -2203 0
-2194 -2204 0
-2194 -2205 0
-2194 -2206 0
-2194 -2207 0
-2194 -2208 0
-2195 -2196 0
-2195 -2197 0
-2195 -2198 0
-2195 -2199 0
-2195 -2200 0
-2195 -2201 0
-2195 -2202 0
-2195 -2203 0
-2195 -2204 0
-2195 -2205 0
-2195 -2206 0
-2195 -2207 0
-2195 -2208 0
-2196 -2197 0
-2196 -2198 0
-2196 -2199 0
-2196 -2200 0
-2196 -2201 0
-2196 -2202 0
-2196 -2203 0
-2196 -2204 0
-2196 -2205 0
-2196 -2206 0
-2196 -2207 0
-2196 -2208 0
-2197 -2198 0
-2197 -2199 0
-2197 -2200 0
-2197 -2201 0
-2197 -2202 0
-2197 -2203 0
-2197 -2204 0
-2197 -2205 0
-2197 -2206 0
-2197 -2207 0
-2197 -2208 0
-2198 -2199 0
-2198 -2200 0
-2198 -2201 0
-2198 -2202 0
-2198 -2203 0
-2198 -2204 0
-2198 -2205 0
-2198 -2206 0
-2198 -2207 0
-2198 -2208 0
-2199 -2200 0
-2199 -2201 0
-2199 -2202 0
-2199 -2203 0
-2199 -2204 0
-2199 -2205 0
-2199 -2206 0
-2199 -2207 0
-2199 -2208 0
-2200 -2201 0
-2200 -2202 0
-2200 -2203 0
-2200 -2204 0
-2200 -2205 0
-2200 -2206 0
-2200 -2207 0
-2200 -2208 0
-2201 -2202 0
-2201 -2203 0
-2201 -2204 0
-2201 -2205 0
-2201 -2206 0
-2201 -2207 0
-2201 -2208 0
-2202 -2203 0
-2202 -2204 0
-2202 -2205 0
-2202 -2206 0
-2202 -2207 0
-2202 -2208 0
-2203 -2204 0
-2203 -2205 0
-2203 -2206 0
-2203 -2207 0
-2203 -2208 0
-2204 -2205 0
-2204 -2206 0
-2204 -2207 0
-2204 -2208 0
-2205 -2206 0
-2205 -2207 0
-2205 -2208 0
-2206 -2207 0
-2206 -2208 0
-2207 -2208 0
2209 2210 2211 2212 2213 2214 2215 2216 2217 2218 2219 2220 2221 2222 2223 2224 0
-2209 -2210 0
-2209 -2211 0
-2209 -2212 0
-2209 -2213 0
-2209 -2214 0
-2209 -2215 0
-2209 -2216 0
-2209 -2217 0
-2209 -2218 0
-2209 -2219 0
-2209 -2220 0
-2209 -2221 0
-2209 -2222 0
-2209 -2223 0
-2209 -2224 0
-2210 -2211 0
-2210 -2212 0
-2210 -2213 0
-2210 -2214 0
-2210 -2215 0
-2210 -2216 0
-2210 -2217 0
-2210 -2218 0
-2210 -2219 0
-2210 -2220 0
-2210 -2221 0
-2210 -2222 0
-2210 -2223 0
-2210 -2224 0
-2211 -2212 0
-2211 -2213 0
-2211 -2214 0
-2211 -2215 0
-2211 -2216 0
-2211 -2217 0
-2211 -2218 0
-2211 -2219 0
-2211 -2220 0
-2211 -2221 0
-2211 -2222 0
-2211 -2223 0
-2211 -2224 0
-2212 -2213 0
-2212 -2214 0
-2212 -2215 0
-2212 -2216 0
-2212 -2217 0
-2212 -2218 0
-2212 -2219 0
-2212 -2220 0
-2212 -2221 0
-2212 -2222 0
-2212 -2223 0
-2212 -2224 0
-2213 -2214 0
-2213 -2215 0
-2213 -2216 0
-2213 -2217 0
-2213 -2218 0
-2213 -2219 0
-2213 -2220 0
-2213 -2221 0
-2213 -2222 0
-2213 -2223 0
-2213 -2224 0
-2214 -2215 0
-2214 -2216 0
-2214 -2217 0
-2214 -2218 0
-2214 -2219 0
-2214 -2220 0
-2214 -2221 0
-2214 -2222 0
-2214 -2223 0
-2214 -2224 0
-2215 -2216 0
-2215 -2217 0
-2215 -2218 0
-2215 -2219 0
-2215 -2220 0
-2215 -2221 0
-2215 -2222 0
-2215 -2223 0
-2215 -2224 0
-2216 -2217 0
-2216 -2218 0
-2216 -2219 0
-2216 -2220 0
-2216 -2221 0
-2216 -2222 0
-2216 -2223 0
-2216 -2224 0
-2217 -2218 0
-2217 -2219 0
-2217 -2220 0
-2217 -2221 0
-2217 -2222 0
-2217 -2223 0
-2217 -2224 0
-2218 -2219 0
-2218 -2220 0
-2218 -2221 0
-2218 -2222 0
-2218 -2223 0
-2218 -2224 0
-2219 -2220 0
-2219 -2221 0
-2219 -2222 0
-2219 -2223 0
-2219 -2224 0
-2220 -2221 0
-2220 -2222 0
-2220 -2223 0
-2220 -2224 0
-2221 -2222 0
-2221 -2223 0
-2221 -2224 0
-2222 -2223 0
-2222 -2224 0
-2223 -2224 0
2225 2226 2227 2228 2229 2230 2231 2232 2233 2234 2235 2236 2237 2238 2239 2240 0
-2225 -2226 0
-2225 -2227 0
-2225 -2228 0
-2225 -2229 0
-2225 -2230 0
-2225 -2231 0
-2225 -2232 0
-2225 -2233 0
-2225 -2234 0
-2225 -2235 0
-2225 -2236 0
-2225 -2237 0
-2225 -2238 0
-2225 -2239 0
-2225 -2240 0
-2226 -2227 0
-2226 -2228 0
-2226 -2229 0
-2226 -2230 0
-2226 -2231 0
-2226 -2232 0
-2226 -2233 0
-2226 -2234 0
-2226 -2235 0
-2226 -2236 0
-2226 -2237 0
-2226 -2238 0
-2226 -2239 0
-2226 -2240 0
-2227 -2228 0
-2227 -2229 0
-2227 -2230 0
-2227 -2231 0
-2227 -2232 0
-2227 -2233 0
-2227 -2234 0
-2227 -2235 0
-2227 -2236 0
-2227 -2237 0
-2227 -2238 0
-2227 -2239 0
-2227 -2240 0
-2228 -2229 0
-2228 -2230 0
-2228 -2231 0
-2228 -2232 0
-2228 -2233 0
-2228 -2234 0
-2228 -2235 0
-2228 -2236 0
-2228 -2237 0
-2228 -2238 0
-2228 -2239 0
-2228 -2240 0
-2229 -2230 0
-2229 -2231 0
-2229 -2232 0
-2229 -2233 0
-2229 -2234 0
-2229 -2235 0
-2229 -2236 0
-2229 -2237 0
-2229 -2238 0
-2229 -2239 0
-2229 -2240 0
-2230 -2231 0
-2230 -2232 0
-2230 -2233 0
-2230 -2234 0
-2230 -2235 0
-2230 -2236 0
-2230 -2237 0
-2230 -2238 0
-2230 -2239 0
-2230 -2240 0
-2231 -2232 0
-2231 -2233 0
-2231 -2234 0
-2231 -2235 0
-2231 -2236 0
-2231 -2237 0
-2231 -2238 0
-2231 -2239 0
-2231 -2240 0
-2232 -2233 0
-2232 -2234 0
-2232 -2235 0
-2232 -2236 0
-2232 -2237 0
-2232 -2238 0
-2232 -2239 0
-2232 -2240 0
-2233 -2234 0
-2233 -2235 0
-2233 -2236 0
-2233 -2237 0
-2233 -2238 0
-2233 -2239 0
-2233 -2240 0
-2234 -2235 0
-2234 -2236 0
-2234 -2237 0
-2234 -2238 0
-2234 -2239 0
-2234 -2240 0
-2235 -2236 0
-2235 -2237 0
-2235 -2238 0
-2235 -2239 0
-2235 -2240 0
-2236 -2237 0
-2236 -2238 0
-2236 -2239 0
-2236 -2240 0
-2237 -2238 0
-2237 -2239 0
-2237 -2240 0
-2238 -2239 0
-2238 -2240 0
-2239 -2240 0
2241 2242 2243 2244 2245 2246 2247 2248 2249 2250 2251 2252 2253 2254 2255 2256 0
-2241 -2242 0
-2241 -2243 0
-2241 -2244 0
-2241 -2245 0
-2241 -2246 0
-2241 -2247 0
-2241 -2248 0
-2241 -2249 0
-2241 -2250 0
-2241 -2251 0
-2241 -2252 0
-2241 -2253 0
-2241 -2254 0
-2241 -2255 0
-2241 -2256 0
-2242 -2243 0
-2242 -2244 0
-2242 -2245 0
-2242 -2246 0
-2242 -2247 0
-2242 -2248 0
-2242 -2249 0
-2242 -2250 0
-2242 -2251 0
-2242 -2252 0
-2242 -2253 0
-2242 -2254 0
-2242 -2255 0
-2242 -2256 0
-2243 -2244 0
-2243 -2245 0
-2243 -2246 0
-2243 -2247 0
-2243 -2248 0
-2243 -2249 0
-2243 -2250 0
-2243 -2251 0
-2243 -2252 0
-2243 -2253 0
-2243 -2254 0
-2243 -2255 0
-2243 -2256 0
-2244 -2245 0
-2244 -2246 0
-2244 -2247 0
-2244 -2248 0
-2244 -2249 0
-2244 -2250 0
-2244 -2251 0
-2244 -2252 0
-2244 -2253 0
-2244 -2254 0
-2244 -2255 0
-2244 -2256 0
-2245 -2246 0
-2245 -2247 0
-2245 -2248 0
-2245 -2249 0
-2245 -2250 0
-2245 -2251 0
-2245 -2252 0
-2245 -2253 0
-2245 -2254 0
-2245 -2255 0
-2245 -2256 0
-2246 -2247 0
-2246 -2248 0
-2246 -2249 0
-2246 -2250 0
-2246 -2251 0
-2246 -2252 0
-2246 -2253 0
-2246 -2254 0
-2246 -2255 0
-2246 -2256 0
-2247 -2248 0
-2247 -2249 0
-2247 -2250 0
-2247 -2251 0
-2247 -2252 0
-2247 -2253 0
-2247 -2254 0
-2247 -2255 0
-2247 -2256 0
-2248 -2249 0
-2248 -2250 0
-2248 -2251 0
-2248 -2252 0
-2248 -2253 0
-2248 -2254 0
-2248 -2255 0
-2248 -2256 0
-2249 -2250 0
-2249 -2251 0
-2249 -2252 0
-2249 -2253 0
-2249 -2254 0
-2249 -2255 0
-2249 -2256 0
-2250 -2251 0
-2250 -2252 0
-2250 -2253 0
-2250 -2254 0
-2250 -2255 0
-2250 -2256 0
-2251 -2252 0
-2251 -2253 0
-2251 -2254 0
-2251 -2255 0
-2251 -2256 0
-2252 -2253 0
-2252 -2254 0
-2252 -2255 0
-2252 -2256 0
-2253 -2254 0
-2253 -2255 0
-2253 -2256 0
-2254 -2255 0
-2254 -2256 0
-2255 -2256 0
2257 2258 2259 2260 2261 2262 2263 2264 2265 2266 2267 2268 2269 2270 2271 2272 0
-2257 -2258 0
-2257 -2259 0
-2257 -2260 0
-2257 -2261 0
-2257 -2262 0
-2257 -2263 0
-2257 -2264 0
-2257 -2265 0
-2257 -2266 0
-2257 -2267 0
-2257 -2268 0
-2257 -2269 0
-2257 -2270 0
-2257 -2271 0
-2257 -2272 0
-2258 -2259 0
-2258 -2260 0
-2258 -2261 0
-2258 -2262 0
-2258 -2263 0
-2258 -2264 0
-2258 -2265 0
-2258 -2266 0
-2258 -2267 0
-2258 -2268 0
-2258 -2269 0
-2258 -2270 0
-2258 -2271 0
-2258 -2272 0
-2259 -2260 0
-2259 -2261 0
-2259 -2262 0
-2259 -2263 0
-2259 -2264 0
-2259 -2265 0
-2259 -2266 0
-2259 -2267 0
-2259 -2268 0
-2259 -2269 0
-2259 -2270 0
-2259 -2271 0
-2259 -2272 0
-2260 -2261 0
-2260 -2262 0
-2260 -2263 0
-2260 -2264 0
-2260 -2265 0
-2260 -2266 0
-2260 -2267 0
-2260 -2268 0
-2260 -2269 0
-2260 -2270 0
-2260 -2271 0
-2260 -2272 0
-2261 -2262 0
-2261 -2263 0
-2261 -2264 0
-2261 -2265 0
-2261 -2266 0
-2261 -2267 0
-2261 -2268 0
-2261 -2269 0
-2261 -2270 0
-2261 -2271 0
-2261 -2272 0
-2262 -2263 0
-2262 -2264 0
-2262 -2265 0
-2262 -2266 0
-2262 -2267 0
-2262 -2268 0
-2262 -2269 0
-2262 -2270 0
-2262 -2271 0
-2262 -2272 0
-2263 -2264 0
-2263 -2265 0
-2263 -2266 0
-2263 -2267 0
-2263 -2268 0
-2263 -2269 0
-2263 -2270 0
-2263 -2271 0
-2263 -2272 0
-2264 -2265 0
-2264 -2266 0
-2264 -2267 0
-2264 -2268 0
-2264 -2269 0
-2264 -2270 0
-2264 -2271 0
-2264 -2272 0
-2265 -2266 0
-2265 -2267 0
-2265 -2268 0
-2265 -2269 0
-2265 -2270 0
-2265 -2271 0
-2265 -2272 0
-2266 -2267 0
-2266 -2268 0
-2266 -2269 0
-2266 -2270 0
-2266 -2271 0
-2266 -2272 0
-2267 -2268 0
-2267 -2269 0
-2267 -2270 0
-2267 -2271 0
-2267 -2272 0
-2268 -2269 0
-2268 -2270 0
-2268 -2271 0
-2268 -2272 0
-2269 -2270 0
-2269 -2271 0
-2269 -2272 0
-2270 -2271 0
-2270 -2272 0
-2271 -2272 0
2273 2274 2275 2276 2277 2278 2279 2280 2281 2282 2283 2284 2285 2286 2287 2288 0
-2273 -2274 0
-2273 -2275 0
-2273 -2276 0
-2273 -2277 0
-2273 -2278 0
-2273 -2279 0
-2273 -2280 0
-2273 -2281 0
-2273 -2282 0
-2273 -2283 0
-2273 -2284 0
-2273 -2285 0
-2273 -2286 0
-2273 -2287 0
-2273 -2288 0
-2274 -2275 0
-2274 -2276 0
-2274 -2277 0
-2274 -2278 0
-2274 -2279 0
-2274 -2280 0
-2274 -2281 0
-2274 -2282 0
-2274 -2283 0
-2274 -2284 0
-2274 -2285 0
-2274 -2286 0
-2274 -2287 0
-2274 -2288 0
-2275 -2276 0
-2275 -2277 0
-2275 -2278 0
-2275 -2279 0
-2275 -2280 0
-2275 -2281 0
-2275 -2282 0
-2275 -2283 0
-2275 -2284 0
-2275 -2285 0
-2275 -2286 0
-2275 -2287 0
-2275 -2288 0
-2276 -2277 0
-2276 -2278 0
-2276 -2279 0
-2276 -2280 0
-2276 -2281 0
-2276 -2282 0
-2276 -2283 0
-2276 -2284 0
-2276 -2285 0
-2276 -2286 0
-2276 -2287 0
-2276 -2288 0
-2277 -2278 0
-2277 -2279 0
-2277 -2280 0
-2277 -2281 0
-2277 -2282 0
-2277 -2283 0
-2277 -2284 0
-2277 -2285 0
-2277 -2286 0
-2277 -2287 0
-2277 -2288 0
-2278 -2279 0
-2278 -2280 0
-2278 -2281 0
-2278 -2282 0
-2278 -2283 0
-2278 -2284 0
-2278 -2285 0
-2278 -2286 0
-2278 -2287 0
-2278 -2288 0
-2279 -2280 0
-2279 -2281 0
-2279 -2282 0
-2279 -2283 0
-2279 -2284 0
-2279 -2285 0
-2279 -2286 0
-2279 -2287 0
-2279 -2288 0
-2280 -2281 0
-2280 -2282 0
-2280 -2283 0
-2280 -2284 0
-2280 -2285 0
-2280 -2286 0
-2280 -2287 0
-2280 -2288 0
-2281 -2282 0
-2281 -2283 0
-2281 -2284 0
-2281 -2285 0
-2281 -2286 0
-2281 -2287 0
-2281 -2288 0
-2282 -2283 0
-2282 -2284 0
-2282 -2285 0
-2282 -2286 0
-2282 -2287 0
-2282 -2288 0
-2283 -2284 0
-2283 -2285 0
-2283 -2286 0
-2283 -2287 0
-2283 -2288 0
-2284 -2285 0
-2284 -2286 0
-2284 -2287 0
-2284 -2288 0
-2285 -2286 0
-2285 -2287 0
-2285 -2288 0
-2286 -2287 0
-2286 -2288 0
-2287 -2288 0
2289 2290 2291 2292 2293 2294 2295 2296 2297 2298 2299 2300 2301 2302 2303 2304 0
-2289 -2290 0
-2289 -2291 0
-2289 -2292 0
-2289 -2293 0
-2289 -2294 0
-2289 -2295 0
-2289 -2296 0
-2289 -2297 0
-2289 -2298 0
-2289 -2299 0
-2289 -2300 0
-2289 -2301 0
-2289 -2302 0
-2289 -2303 0
-2289 -2304 0
-2290 -2291 0
-2290 -2292 0
-2290 -2293 0
-2290 -2294 0
-2290 -2295 0
-2290 -2296 0
-2290 -2297 0
-2290 -2298 0
-2290 -2299 0
-2290 -2300 0
-2290 -2301 0
-2290 -2302 0
-2290 -2303 0
-2290 -2304 0
-2291 -2292 0
-2291 -2293 0
-2291 -2294 0
-2291 -2295 0
-2291 -2296 0
-2291 -2297 0
-2291 -2298 0
-2291 -2299 0
-2291 -2300 0
-2291 -2301 0
-2291 -2302 0
-2291 -2303 0
-2291 -2304 0
-2292 -2293 0
-2292 -2294 0
-2292 -2295 0
-2292 -2296 0
-2292 -2297 0
-2292 -2298 0
-2292 -2299 0
-2292 -2300 0
-2292 -2301 0
-2292 -2302 0
-2292 -2303 0
-2292 -2304 0
-2293 -2294 0
-2293 -2295 0
-2293 -2296 0
-2293 -2297 0
-2293 -2298 0
-2293 -2299 0
-2293 -2300 0
-2293 -2301 0
-2293 -2302 0
-2293 -2303 0
-2293 -2304 0
-2294 -2295 0
-2294 -2296 0
-2294 -2297 0
-2294 -2298 0
-2294 -2299 0
-2294 -2300 0
-2294 -2301 0
-2294 -2302 0
-2294 -2303 0
-2294 -2304 0
-2295 -2296 0
-2295 -2297 0
-2295 -2298 0
-2295 -2299 0
-2295 -2300 0
-2295 -2301 0
-2295 -2302 0
-2295 -2303 0
-2295 -2304 0
-2296 -2297 0
-2296 -2298 0
-2296 -2299 0
-2296 -2300 0
-2296 -2301 0
-2296 -2302 0
-2296 -2303 0
-2296 -2304 0
-2297 -2298 0
-2297 -2299 0
-2297 -2300 0
-2297 -2301 0
-2297 -2302 0
-2297 -2303 0
-2297 -2304 0
-2298 -2299 0
-2298 -2300 0
-2298 -2301 0
-2298 -2302 0
-2298 -2303 0
-2298 -2304 0
-2299 -2300 0
-2299 -2301 0
-2299 -2302 0
-2299 -2303 0
-2299 -2304 0
-2300 -2301 0
-2300 -2302 0
-2300 -2303 0
-2300 -2304 0
-2301 -2302 0
-2301 -2303 0
-2301 -2304 0
-2302 -2303 0
-2302 -2304 0
-2303 -2304 0
2305 2306 2307 2308 2309 2310 2311 2312 2313 2314 2315 2316 2317 2318 2319 2320 0
-2305 -2306 0
-2305 -2307 0
-2305 -2308 0
-2305 -2309 0
-2305 -2310 0
-2305 -2311 0
-2305 -2312 0
-2305 -2313 0
-2305 -2314 0
-2305 -2315 0
-2305 -2316 0
-2305 -2317 0
-2305 -2318 0
-2305 -2319 0
-2305 -2320 0
-2306 -2307 0
-2306 -2308 0
-2306 -2309 0
-2306 -2310 0
-2306 -2311 0
-2306 -2312 0
-2306 -2313 0
-2306 -2314 0
-2306 -2315 0
-2306 -2316 0
-2306 -2317 0
-2306 -2318 0
-2306 -2319 0
-2306 -2320 0
-2307 -2308 0
-2307 -2309 0
-2307 -2310 0
-2307 -2311 0
-2307 -2312 0
-2307 -2313 0
-2307 -2314 0
-2307 -2315 0
-2307 -2316 0
-2307 -2317 0
-2307 -2318 0
-2307 -2319 0
-2307 -2320 0
-2308 -2309 0
-2308 -2310 0
-2308 -2311 0
-2308 -2312 0
-2308 -2313 0
-2308 -2314 0
-2308 -2315 0
-2308 -2316 0
-2308 -2317 0
-2308 -2318 0
-2308 -2319 0
-2308 -2320 0
-2309 -2310 0
-2309 -2311 0
-2309 -2312 0
-2309 -2313 0
-2309 -2314 0
-2309 -2315 0
-2309 -2316 0
-2309 -2317 0
-2309 -2318 0
-2309 -2319 0
-2309 -2320 0
-2310 -2311 0
-2310 -2312 0
-2310 -2313 0
-2310 -2314 0
-2310 -2315 0
-2310 -2316 0
-2310 -2317 0
-2310 -2318 0
-2310 -2319 0
-2310 -2320 0
-2311 -2312 0
-2311 -2313 0
-2311 -2314 0
-2311 -2315 0
-2311 -2316 0
-2311 -2317 0
-2311 -2318 0
-2311 -2319 0
-2311 -2320 0
-2312 -2313 0
-2312 -2314 0
-2312 -2315 0
-2312 -2316 0
-2312 -2317 0
-2312 -2318 0
-2312 -2319 0
-2312 -2320 0
-2313 -2314 0
-2313 -2315 0
-2313 -2316 0
-2313 -2317 0
-2313 -2318 0
-2313 -2319 0
-2313 -2320 0
-2314 -2315 0
-2314 -2316 0
-2314 -2317 0
-2314 -2318 0
-2314 -2319 0
-2314 -2320 0
-2315 -2316 0
-2315 -2317 0
-2315 -2318 0
-2315 -2319 0
-2315 -2320 0
-2316 -2317 0
-2316 -2318 0
-2316 -2319 0
-2316 -2320 0
-2317 -2318 0
-2317 -2319 0
-2317 -2320 0
-2318 -2319 0
-2318 -2320 0
-2319 -2320 0
2321 2322 2323 2324 2325 2326 2327 2328 2329 2330 2331 2332 2333 2334 2335 2336 0
-2321 -2322 0
-2321 -2323 0
-2321 -2324 0
-2321 -2325 0
-2321 -2326 0
-2321 -2327 0
-2321 -2328 0
-2321 -2329 0
-2321 -2330 0
-2321 -2331 0
-2321 -2332 0
-2321 -2333 0
-2321 -2334 0
-2321 -2335 0
-2321 -2336 0
-2322 -2323 0
-2322 -2324 0
-2322 -2325 0
-2322 -2326 0
-2322 -2327 0
-2322 -2328 0
-2322 -2329 0
-2322 -2330 0
-2322 -2331 0
-2322 -2332 0
-2322 -2333 0
-2322 -2334 0
-2322 -2335 0
-2322 -2336 0
-2323 -2324 0
-2323 -2325 0
-2323 -2326 0
-2323 -2327 0
-2323 -2328 0
-2323 -2329 0
-2323 -2330 0
-2323 -2331 0
-2323 -2332 0
-2323 -2333 0
-2323 -2334 0
-2323 -2335 0
-2323 -2336 0
-2324 -2325 0
-2324 -2326 0
-2324 -2327 0
-2324 -2328 0
-2324 -2329 0
-2324 -2330 0
-2324 -2331 0
-2324 -2332 0
-2324 -2333 0
-2324 -2334 0
-2324 -2335 0
-2324 -2336 0
-2325 -2326 0
-2325 -2327 0
-2325 -2328 0
-2325 -2329 0
-2325 -2330 0
-2325 -2331 0
-2325 -2332 0
-2325 -2333 0
-2325 -2334 0
-2325 -2335 0
-2325 -2336 0
-2326 -2327 0
-2326 -2328 0
-2326 -2329 0
-2326 -2330 0
-2326 -2331 0
-2326 -2332 0
-2326 -2333 0
-2326 -2334 0
-2326 -2335 0
-2326 -2336 0
-2327 -2328 0
-2327 -2329 0
-2327 -2330 0
-2327 -2331 0
-2327 -2332 0
-2327 -2333 0
-2327 -2334 0
-2327 -2335 0
-2327 -2336 0
-2328 -2329 0
-2328 -2330 0
-2328 -2331 0
-2328 -2332 0
-2328 -2333 0
-2328 -2334 0
-2328 -2335 0
-2328 -2336 0
-2329 -2330 0
-2329 -2331 0
-2329 -2332 0
-2329 -2333 0
-2329 -2334 0
-2329 -2335 0
-2329 -2336 0
-2330 -2331 0
-2330 -2332 0
-2330 -2333 0
-2330 -2334 0
-2330 -2335 0
-2330 -2336 0
-2331 -2332 0
-2331 -2333 0
-2331 -2334 0
-2331 -2335 0
-2331 -2336 0
-2332 -2333 0
-2332 -2334 0
-2332 -2335 0
-2332 -2336 0
-2333 -2334 0
-2333 -2335 0
-2333 -2336 0
-2334 -2335 0
-2334 -2336 0
-2335 -2336 0
2337 2338 2339 2340 2341 2342 2343 2344 2345 2346 2347 2348 2349 2350 2351 2352 0
-2337 -2338 0
-2337 -2339 0
-2337 -2340 0
-2337 -2341 0
-2337 -2342 0
-2337 -2343 0
-2337 -2344 0
-2337 -2345 0
-2337 -2346 0
-2337 -2347 0
-2337 -2348 0
-2337 -2349 0
-2337 -2350 0
-2337 -2351 0
-2337 -2352 0
-2338 -2339 0
-2338 -2340 0
-2338 -2341 0
-2338 -2342 0
-2338 -2343 0
-2338 -2344 0
-2338 -2345 0
-2338 -2346 0
-2338 -2347 0
-2338 -2348 0
-2338 -2349 0
-2338 -2350 0
-2338 -2351 0
-2338 -2352 0
-2339 -2340 0
-2339 -2341 0
-2339 -2342 0
-2339 -2343 0
-2339 -2344 0
-2339 -2345 0
-2339 -2346 0
-2339 -2347 0
-2339 -2348 0
-2339 -2349 0
-2339 -2350 0
-2339 -2351 0
-2339 -2352 0
-2340 -2341 0
-2340 -2342 0
-2340 -2343 0
-2340 -2344 0
-2340 -2345 0
-2340 -2346 0
-2340 -2347 0
-2340 -2348 0
-2340 -2349 0
-2340 -2350 0
-2340 -2351 0
-2340 -2352 0
-2341 -2342 0
-2341 -2343 0
-2341 -2344 0
-2341 -2345 0
-2341 -2346 0
-2341 -2347 0
-2341 -2348 0
-2341 -2349 0
-2341 -2350 0
-2341 -2351 0
-2341 -2352 0
-2342 -2343 0
-2342 -2344 0
-2342 -2345 0
-2342 -2346 0
-2342 -2347 0
-2342 -2348 0
-2342 -2349 0
-2342 -2350 0
-2342 -2351 0
-2342 -2352 0
-2343 -2344 0
-2343 -2345 0
-2343 -2346 0
-2343 -2347 0
-2343 -2348 0
-2343 -2349 0
-2343 -2350 0
-2343 -2351 0
-2343 -2352 0
-2344 -2345 0
-2344 -2346 0
-2344 -2347 0
-2344 -2348 0
-2344 -2349 0
-2344 -2350 0
-2344 -2351 0
-2344 -2352 0
-2345 -2346 0
-2345 -2347 0
-2345 -2348 0
-2345 -2349 0
-2345 -2350 0
-2345 -2351 0
-2345 -2352 0
-2346 -2347 0
-2346 -2348 0
-2346 -2349 0
-2346 -2350 0
-2346 -2351 0
-2346 -2352 0
-2347 -2348 0
-2347 -2349 0
-2347 -2350 0
-2347 -2351 0
-2347 -2352 0
-2348 -2349 0
-2348 -2350 0
-2348 -2351 0
-2348 -2352 0
-2349 -2350 0
-2349 -2351 0
-2349 -2352 0
-2350 -2351 0
-2350 -2352 0
-2351 -2352 0
2353 2354 2355 2356 2357 2358 2359 2360 2361 2362 2363 2364 2365 2366 2367 2368 0
-2353 -2354 0
-2353 -2355 0
-2353 -2356 0
-2353 -2357 0
-2353 -2358 0
-2353 -2359 0
-2353 -2360 0
-2353 -2361 0
-2353 -2362 0
-2353 -2363 0
-2353 -2364 0
-2353 -2365 0
-2353 -2366 0
-2353 -2367 0
-2353 -2368 0
-2354 -2355 0
-2354 -2356 0
-2354 -2357 0
-2354 -2358 0
-2354 -2359 0
-2354 -2360 0
-2354 -2361 0
-2354 -2362 0
-2354 -2363 0
-2354 -2364 0
-2354 -2365 0
-2354 -2366 0
-2354 -2367 0
-2354 -2368 0
-2355 -2356 0
-2355 -2357 0
-2355 -2358 0
-2355 -2359 0
-2355 -2360 0
-2355 -2361 0
-2355 -2362 0
-2355 -2363 0
-2355 -2364 0
-2355 -2365 0
-2355 -2366 0
-2355 -2367 0
-2355 -2368 0
-2356 -2357 0
-2356 -2358 0
-2356 -2359 0
-2356 -2360 0
-2356 -2361 0
-2356 -2362 0
-2356 -2363 0
-2356 -2364 0
-2356 -2365 0
-2356 -2366 0
-2356 -2367 0
-2356 -2368 0
-2357 -2358 0
-2357 -2359 0
-2357 -2360 0
-2357 -2361 0
-2357 -2362 0
-2357 -2363 0
-2357 -2364 0
-2357 -2365 0
-2357 -2366 0
-2357 -2367 0
-2357 -2368 0
-2358 -2359 0
-2358 -2360 0
-2358 -2361 0
-2358 -2362 0
-2358 -2363 0
-2358 -2364 0
-2358 -2365 0
-2358 -2366 0
-2358 -2367 0
-2358 -2368 0
-2359 -2360 0
-2359 -2361 0
-2359 -2362 0
-2359 -2363 0
-2359 -2364 0
-2359 -2365 0
-2359 -2366 0
-2359 -2367 0
-2359 -2368 0
-2360 -2361 0
-2360 -2362 0
-2360 -2363 0
-2360 -2364 0
-2360 -2365 0
-2360 -2366 0
-2360 -2367 0
-2360 -2368 0
-2361 -2362 0
-2361 -2363 0
-2361 -2364 0
-2361 -2365 0
-2361 -2366 0
-2361 -2367 0
-2361 -2368 0
-2362 -2363 0
-2362 -2364 0
-2362 -2365 0
-2362 -2366 0
-2362 -2367 0
-2362 -2368 0
-2363 -2364 0
-2363 -2365 0
-2363 -2366 0
-2363 -2367 0
-2363 -2368 0
-2364 -2365 0
-2364 -2366 0
-2364 -2367 0
-2364 -2368 0
-2365 -2366 0
-2365 -2367 0
-2365 -2368 0
-2366 -2367 0
-2366 -2368 0
-2367 -2368 0
2369 2370 2371 2372 2373 2374 2375 2376 2377 2378 2379 2380 2381 2382 2383 2384 0
-2369 -2370 0
-2369 -2371 0
-2369 -2372 0
-2369 -2373 0
-2369 -2374 0
-2369 -2375 0
-2369 -2376 0
-2369 -2377 0
-2369 -2378 0
-2369 -2379 0
-2369 -2380 0
-2369 -2381 0
-2369 -2382 0
-2369 -2383 0
-2369 -2384 0
-2370 -2371 0
-2370 -2372 0
-2370 -2373 0
-2370 -2374 0
-2370 -2375 0
-2370 -2376 0
-2370 -2377 0
-2370 -2378 0
-2370 -2379 0
-2370 -2380 0
-2370 -2381 0
-2370 -2382 0
-2370 -2383 0
-2370 -2384 0
-2371 -2372 0
-2371 -2373 0
-2371 -2374 0
-2371 -2375 0
-2371 -2376 0
-2371 -2377 0
-2371 -2378 0
-2371 -2379 0
-2371 -2380 0
-2371 -2381 0
-2371 -2382 0
-2371 -2383 0
-2371 -2384 0
-2372 -2373 0
-2372 -2374 0
-2372 -2375 0
-2372 -2376 0
-2372 -2377 0
-2372 -2378 0
-2372 -2379 0
-2372 -2380 0
-2372 -2381 0
-2372 -2382 0
-2372 -2383 0
-2372 -2384 0
-2373 -2374 0
-2373 -2375 0
-2373 -2376 0
-2373 -2377 0
-2373 -2378 0
-2373 -2379 0
-2373 -2380 0
-2373 -2381 0
-2373 -2382 0
-2373 -2383 0
-2373 -2384 0
-2374 -2375 0
-2374 -2376 0
-2374 -2377 0
-2374 -2378 0
-2374 -2379 0
-2374 -2380 0
-2374 -2381 0
-2374 -2382 0
-2374 -2383 0
-2374 -2384 0
-2375 -2376 0
-2375 -2377 0
-2375 -2378 0
-2375 -2379 0
-2375 -2380 0
-2375 -2381 0
-2375 -2382 0
-2375 -2383 0
-2375 -2384 0
-2376 -2377 0
-2376 -2378 0
-2376 -2379 0
-2376 -2380 0
-2376 -2381 0
-2376 -2382 0
-2376 -2383 0
-2376 -2384 0
-2377 -2378 0
-2377 -2379 0
-2377 -2380 0
-2377 -2381 0
-2377 -2382 0
-2377 -2383 0
-2377 -2384 0
-2378 -2379 0
-2378 -2380 0
-2378 -2381 0
-2378 -2382 0
-2378 -2383 0
-2378 -2384 0
-2379 -2380 0
-2379 -2381 0
-2379 -2382 0
-2379 -2383 0
-2379 -2384 0
-2380 -2381 0
-2380 -2382 0
-2380 -2383 0
-2380 -2384 0
-2381 -2382 0
-2381 -2383 0
-2381 -2384 0
-2382 -2383 0
-2382 -2384 0
-2383 -2384 0
2385 2386 2387 2388 2389 2390 2391 2392 2393 2394 2395 2396 2397 2398 2399 2400 0
-2385 -2386 0
-2385 -2387 0
-2385 -2388 0
-2385 -2389 0
-2385 -2390 0
-2385 -2391 0
-2385 -2392 0
-2385 -2393 0
-2385 -2394 0
-2385 -2395 0
-2385 -2396 0
-2385 -2397 0
-2385 -2398 0
-2385 -2399 0
-2385 -2400 0
-2386 -2387 0
-2386 -2388 0
-2386 -2389 0
-2386 -2390 0
-2386 -2391 0
-2386 -2392 0
-2386 -2393 0
-2386 -2394 0
-2386 -2395 0
-2386 -2396 0
-2386 -2397 0
-2386 -2398 0
-2386 -2399 0
-2386 -2400 0
-2387 -2388 0
-2387 -2389 0
-2387 -2390 0
-2387 -2391 0
-2387 -2392 0
-2387 -2393 0
-2387 -2394 0
-2387 -2395 0
-2387 -2396 0
-2387 -2397 0
-2387 -2398 0
-2387 -2399 0
-2387 -2400 0
-2388 -2389 0
-2388 -2390 0
-2388 -2391 0
-2388 -2392 0
-2388 -2393 0
-2388 -2394 0
-2388 -2395 0
-2388 -2396 0
-2388 -2397 0
-2388 -2398 0
-2388 -2399 0
-2388 -2400 0
-2389 -2390 0
-2389 -2391 0
-2389 -2392 0
-2389 -2393 0
-2389 -2394 0
-2389 -2395 0
-2389 -2396 0
-2389 -2397 0
-2389 -2398 0
-2389 -2399 0
-2389 -2400 0
-2390 -2391 0
-2390 -2392 0
-2390 -2393 0
-2390 -2394 0
-2390 -2395 0
-2390 -2396 0
-2390 -2397 0
-2390 -2398 0
-2390 -2399 0
-2390 -2400 0
-2391 -2392 0
-2391 -2393 0
-2391 -2394 0
-2391 -2395 0
-2391 -2396 0
-2391 -2397 0
-2391 -2398 0
-2391 -2399 0
-2391 -2400 0
-2392 -2393 0
-2392 -2394 0
-2392 -2395 0
-2392 -2396 0
-2392 -2397 0
-2392 -2398 0
-2392 -2399 0
-2392 -2400 0
-2393 -2394 0
-2393 -2395 0
-2393 -2396 0
-2393 -2397 0
-2393 -2398 0
-2393 -2399 0
-2393 -2400 0
-2394 -2395 0
-2394 -2396 0
-2394 -2397 0
-2394 -2398 0
-2394 -2399 0
-2394 -2400 0
-2395 -2396 0
-2395 -2397 0
-2395 -2398 0
-2395 -2399 0
-2395 -2400 0
-2396 -2397 0
-2396 -2398 0
-2396 -2399 0
-2396 -2400 0
-2397 -2398 0
-2397 -2399 0
-2397 -2400 0
-2398 -2399 0
-2398 -2400 0
-2399 -2400 0
2401 2402 2403 2404 2405 2406 2407 2408 2409 2410 2411 2412 2413 2414 2415 2416 0
-2401 -2402 0
-2401 -2403 0
-2401 -2404 0
-2401 -2405 0
-2401 -2406 0
-2401 -2407 0
-2401 -2408 0
-2401 -2409 0
-2401 -2410 0
-2401 -2411 0
-2401 -2412 0
-2401 -2413 0
-2401 -2414 0
-2401 -2415 0
-2401 -2416 0
-2402 -2403 0
-2402 -2404 0
-2402 -2405 0
-2402 -2406 0
-2402 -2407 0
-2402 -2408 0
-2402 -2409 0
-2402 -2410 0
-2402 -2411 0
-2402 -2412 0
-2402 -2413 0
-2402 -2414 0
-2402 -2415 0
-2402 -2416 0
-2403 -2404 0
-2403 -2405 0
-2403 -2406 0
-2403 -2407 0
-2403 -2408 0
-2403 -2409 0
-2403 -2410 0
-2403 -2411 0
-2403 -2412 0
-2403 -2413 0
-2403 -2414 0
-2403 -2415 0
-2403 -2416 0
-2404 -2405 0
-2404 -2406 0
-2404 -2407 0
-2404 -2408 0
-2404 -2409 0
-2404 -2410 0
-2404 -2411 0
-2404 -2412 0
-2404 -2413 0
-2404 -2414 0
-2404 -2415 0
-2404 -2416 0
-2405 -2406 0
-2405 -2407 0
-2405 -2408 0
-2405 -2409 0
-2405 -2410 0
-2405 -2411 0
-2405 -2412 0
-2405 -2413 0
-2405 -2414 0
-2405 -2415 0
-2405 -2416 0
-2406 -2407 0
-2406 -2408 0
-2406 -2409 0
-2406 -2410 0
-2406 -2411 0
-2406 -2412 0
-2406 -2413 0
-2406 -2414 0
-2406 -2415 0
-2406 -2416 0
-2407 -2408 0
-2407 -2409 0
-2407 -2410 0
-2407 -2411 0
-2407 -2412 0
-2407 -2413 0
-2407 -2414 0
-2407 -2415 0
-2407 -2416 0
-2408 -2409 0
-2408 -2410 0
-2408 -2411 0
-2408 -2412 0
-2408 -2413 0
-2408 -2414 0
-2408 -2415 0
-2408 -2416 0
-2409 -2410 0
-2409 -2411 0
-2409 -2412 0
-2409 -2413 0
-2409 -2414 0
-2409 -2415 0
-2409 -2416 0
-2410 -2411 0
-2410 -2412 0
-2410 -2413 0
-2410 -2414 0
-2410 -2415 0
-2410 -2416 0
-2411 -2412 0
-2411 -2413 0
-2411 -2414 0
-2411 -2415 0
-2411 -2416 0
-2412 -2413 0
-2412 -2414 0
-2412 -2415 0
-2412 -2416 0
-2413 -2414 0
-2413 -2415 0
-2413 -2416 0
-2414 -2415 0
-2414 -2416 0
-2415 -2416 0
2417 2418 2419 2420 2421 2422 2423 2424 2425 2426 2427 2428 2429 2430 2431 2432 0
-2417 -2418 0
-2417 -2419 0
-2417 -2420 0
-2417 -2421 0
-2417 -2422 0
-2417 -2423 0
-2417 -2424 0
-2417 -2425 0
-2417 -2426 0
-2417 -2427 0
-2417 -2428 0
-2417 -2429 0
-2417 -2430 0
-2417 -2431 0
-2417 -2432 0
-2418 -2419 0
-2418 -2420 0
-2418 -2421 0
-2418 -2422 0
-2418 -2423 0
-2418 -2424 0
-2418 -2425 0
-2418 -2426 0
-2418 -2427 0
-2418 -2428 0
-2418 -2429 0
-2418 -2430 0
-2418 -2431 0
-2418 -2432 0
-2419 -2420 0
-2419 -2421 0
-2419 -2422 0
-2419 -2423 0
-2419 -2424 0
-2419 -2425 0
-2419 -2426 0
-2419 -2427 0
-2419 -2428 0
-2419 -2429 0
-2419 -2430 0
-2419 -2431 0
-2419 -2432 0
-2420 -2421 0
-2420 -2422 0
-2420 -2423 0
-2420 -2424 0
-2420 -2425 0
-2420 -2426 0
-2420 -2427 0
-2420 -2428 0
-2420 -2429 0
-2420 -2430 0
-2420 -2431 0
-2420 -2432 0
-2421 -2422 0
-2421 -2423 0
-2421 -2424 0
-2421 -2425 0
-2421 -2426 0
-2421 -2427 0
-2421 -2428 0
-2421 -2429 0
-2421 -2430 0
-2421 -2431 0
-2421 -2432 0
-2422 -2423 0
-2422 -2424 0
-2422 -2425 0
-2422 -2426 0
-2422 -2427 0
-2422 -2428 0
-2422 -2429 0
-2422 -2430 0
-2422 -2431 0
-2422 -2432 0
-2423 -2424 0
-2423 -2425 0
-2423 -2426 0
-2423 -2427 0
-2423 -2428 0
-2423 -2429 0
-2423 -2430 0
-2423 -2431 0
-2423 -2432 0
-2424 -2425 0
-2424 -2426 0
-2424 -2427 0
-2424 -2428 0
-2424 -2429 0
-2424 -2430 0
-2424 -2431 0
-2424 -2432 0
-2425 -2426 0
-2425 -2427 0
-2425 -2428 0
-2425 -2429 0
-2425 -2430 0
-2425 -2431 0
-2425 -2432 0
-2426 -2427 0
-2426 -2428 0
-2426 -2429 0
-2426 -2430 0
-2426 -2431 0
-2426 -2432 0
-2427 -2428 0
-2427 -2429 0
-2427 -2430 0
-2427 -2431 0
-2427 -2432 0
-2428 -2429 0
-2428 -2430 0
-2428 -2431 0
-2428 -2432 0
-2429 -2430 0
-2429 -2431 0
-2429 -2432 0
-2430 -2431 0
-2430 -2432 0
-2431 -2432 0
2433 2434 2435 2436 2437 2438 2439 2440 2441 2442 2443 2444 2445 2446 2447 2448 0
-2433 -2434 0
-2433 -2435 0
-2433 -2436 0
-2433 -2437 0
-2433 -2438 0
-2433 -2439 0
-2433 -2440 0
-2433 -2441 0
-2433 -2442 0
-2433 -2443 0
-2433 -2444 0
-2433 -2445 0
-2433 -2446 0
-2433 -2447 0
-2433 -2448 0
-2434 -2435 0
-2434 -2436 0
-2434 -2437 0
-2434 -2438 0
-2434 -2439 0
-2434 -2440 0
-2434 -2441 0
-2434 -2442 0
-2434 -2443 0
-2434 -2444 0
-2434 -2445 0
-2434 -2446 0
-2434 -2447 0
-2434 -2448 0
-2435 -2436 0
-2435 -2437 0
-2435 -2438 0
-2435 -2439 0
-2435 -2440 0
-2435 -2441 0
-2435 -2442 0
-2435 -2443 0
-2435 -2444 0
-2435 -2445 0
-2435 -2446 0
-2435 -2447 0
-2435 -2448 0
-2436 -2437 0
-2436 -2438 0
-2436 -2439 0
-2436 -2440 0
-2436 -2441 0
-2436 -2442 0
-2436 -2443 0
-2436 -2444 0
-2436 -2445 0
-2436 -2446 0
-2436 -2447 0
-2436 -2448 0
-2437 -2438 0
-2437 -2439 0
-2437 -2440 0
-2437 -2441 0
-2437 -2442 0
-2437 -2443 0
-2437 -2444 0
-2437 -2445 0
-2437 -2446 0
-2437 -2447 0
-2437 -2448 0
-2438 -2439 0
-2438 -2440 0
-2438 -2441 0
-2438 -2442 0
-2438 -2443 0
-2438 -2444 0
-2438 -2445 0
-2438 -2446 0
-2438 -2447 0
-2438 -2448 0
-2439 -2440 0
-2439 -2441 0
-2439 -2442 0
-2439 -2443 0
-2439 -2444 0
-2439 -2445 0
-2439 -2446 0
-2439 -2447 0
-2439 -2448 0
-2440 -2441 0
-2440 -2442 0
-2440 -2443 0
-2440 -2444 0
-2440 -2445 0
-2440 -2446 0
-2440 -2447 0
-2440 -2448 0
-2441 -2442 0
-2441 -2443 0
-2441 -2444 0
-2441 -2445 0
-2441 -2446 0
-2441 -2447 0
-2441 -2448 0
-2442 -2443 0
-2442 -2444 0
-2442 -2445 0
-2442 -2446 0
-2442 -2447 0
-2442 -2448 0
-2443 -2444 0
-2443 -2445 0
-2443 -2446 0
-2443 -2447 0
-2443 -2448 0
-2444 -2445 0
-2444 -2446 0
-2444 -2447 0
-2444 -2448 0
-2445 -2446 0
-2445 -2447 0
-2445 -2448 0
-2446 -2447 0
-2446 -2448 0
-2447 -2448 0
2449 2450 2451 2452 2453 2454 2455 2456 2457 2458 2459 2460 2461 2462 2463 2464 0
-2449 -2450 0
-2449 -2451 0
-2449 -2452 0
-2449 -2453 0
-2449 -2454 0
-2449 -2455 0
-2449 -2456 0
-2449 -2457 0
-2449 -2458 0
-2449 -2459 0
-2449 -2460 0
-2449 -2461 0
-2449 -2462 0
-2449 -2463 0
-2449 -2464 0
-2450 -2451 0
-2450 -2452 0
-2450 -2453 0
-2450 -2454 0
-2450 -2455 0
-2450 -2456 0
-2450 -2457 0
-2450 -2458 0
-2450 -2459 0
-2450 -2460 0
-2450 -2461 0
-2450 -2462 0
-2450 -2463 0
-2450 -2464 0
-2451 -2452 0
-2451 -2453 0
-2451 -2454 0
-2451 -2455 0
-2451 -2456 0
-2451 -2457 0
-2451 -2458 0
-2451 -2459 0
-2451 -2460 0
-2451 -2461 0
-2451 -2462 0
-2451 -2463 0
-2451 -2464 0
-2452 -2453 0
-2452 -2454 0
-2452 -2455 0
-2452 -2456 0
-2452 -2457 0
-2452 -2458 0
-2452 -2459 0
-2452 -2460 0
-2452 -2461 0
-2452 -2462 0
-2452 -2463 0
-2452 -2464 0
-2453 -2454 0
-2453 -2455 0
-2453 -2456 0
-2453 -2457 0
-2453 -2458 0
-2453 -2459 0
-2453 -2460 0
-2453 -2461 0
-2453 -2462 0
-2453 -2463 0
-2453 -2464 0
-2454 -2455 0
-2454 -2456 0
-2454 -2457 0
-2454 -2458 0
-2454 -2459 0
-2454 -2460 0
-2454 -2461 0
-2454 -2462 0
-2454 -2463 0
-2454 -2464 0
-2455 -2456 0
-2455 -2457 0
-2455 -2458 0
-2455 -2459 0
-2455 -2460 0
-2455 -2461 0
-2455 -2462 0
-2455 -2463 0
-2455 -2464 0
-2456 -2457 0
-2456 -2458 0
-2456 -2459 0
-2456 -2460 0
-2456 -2461 0
-2456 -2462 0
-2456 -2463 0
-2456 -2464 0
-2457 -2458 0
-2457 -2459 0
-2457 -2460 0
-2457 -2461 0
-2457 -2462 0
-2457 -2463 0
-2457 -2464 0
-2458 -2459 0
-2458 -2460 0
-2458 -2461 0
-2458 -2462 0
-2458 -2463 0
-2458 -2464 0
-2459 -2460 0
-2459 -2461 0
-2459 -2462 0
-2459 -2463 0
-2459 -2464 0
-2460 -2461 0
-2460 -2462 0
-2460 -2463 0
-2460 -2464 0
-2461 -2462 0
-2461 -2463 0
-2461 -2464 0
-2462 -2463 0
-2462 -2464 0
-2463 -2464 0
2465 2466 2467 2468 2469 2470 2471 2472 2473 2474 2475 2476 2477 2478 2479 2480 0
-2465 -2466 0
-2465 -2467 0
-2465 -2468 0
-2465 -2469 0
-2465 -2470 0
-2465 -2471 0
-2465 -2472 0
-2465 -2473 0
-2465 -2474 0
-2465 -2475 0
-2465 -2476 0
-2465 -2477 0
-2465 -2478 0
-2465 -2479 0
-2465 -2480 0
-2466 -2467 0
-2466 -2468 0
-2466 -2469 0
-2466 -2470 0
-2466 -2471 0
-2466 -2472 0
-2466 -2473 0
-2466 -2474 0
-2466 -2475 0
-2466 -2476 0
-2466 -2477 0
-2466 -2478 0
-2466 -2479 0
-2466 -2480 0
-2467 -2468 0
-2467 -2469 0
-2467 -2470 0
-2467 -2471 0
-2467 -2472 0
-2467 -2473 0
-2467 -2474 0
-2467 -2475 0
-2467 -2476 0
-2467 -2477 0
-2467 -2478 0
-2467 -2479 0
-2467 -2480 0
-2468 -2469 0
-2468 -2470 0
-2468 -2471 0
-2468 -2472 0
-2468 -2473 0
-2468 -2474 0
-2468 -2475 0
-2468 -2476 0
-2468 -2477 0
-2468 -2478 0
-2468 -2479 0
-2468 -2480 0
-2469 -2470 0
-2469 -2471 0
-2469 -2472 0
-2469 -2473 0
-2469 -2474 0
-2469 -2475 0
-2469 -2476 0
-2469 -2477 0
-2469 -2478 0
-2469 -2479 0
-2469 -2480 0
-2470 -2471 0
-2470 -2472 0
-2470 -2473 0
-2470 -2474 0
-2470 -2475 0
-2470 -2476 0
-2470 -2477 0
-2470 -2478 0
-2470 -2479 0
-2470 -2480 0
-2471 -2472 0
-2471 -2473 0
-2471 -2474 0
-2471 -2475 0
-2471 -2476 0
-2471 -2477 0
-2471 -2478 0
-2471 -2479 0
-2471 -2480 0
-2472 -2473 0
-2472 -2474 0
-2472 -2475 0
-2472 -2476 0
-2472 -2477 0
-2472 -2478 0
-2472 -2479 0
-2472 -2480 0
-2473 -2474 0
-2473 -2475 0
-2473 -2476 0
-2473 -2477 0
-2473 -2478 0
-2473 -2479 0
-2473 -2480 0
-2474 -2475 0
-2474 -2476 0
-2474 -2477 0
-2474 -2478 0
-2474 -2479 0
-2474 -2480 0
-2475 -2476 0
-2475 -2477 0
-2475 -2478 0
-2475 -2479 0
-2475 -2480 0
-2476 -2477 0
-2476 -2478 0
-2476 -2479 0
-2476 -2480 0
-2477 -2478 0
-2477 -2479 0
-2477 -2480 0
-2478 -2479 0
-2478 -2480 0
-2479 -2480 0
2481 2482 2483 2484 2485 2486 2487 2488 2489 2490 2491 2492 2493 2494 2495 2496 0
-2481 -2482 0
-2481 -2483 0
-2481 -2484 0
-2481 -2485 0
-2481 -2486 0
-2481 -2487 0
-2481 -2488 0
-2481 -2489 0
-2481 -2490 0
-2481 -2491 0
-2481 -2492 0
-2481 -2493 0
-2481 -2494 0
-2481 -2495 0
-2481 -2496 0
-2482 -2483 0
-2482 -2484 0
-2482 -2485 0
-2482 -2486 0
-2482 -2487 0
-2482 -2488 0
-2482 -2489 0
-2482 -2490 0
-2482 -2491 0
-2482 -2492 0
-2482 -2493 0
-2482 -2494 0
-2482 -2495 0
-2482 -2496 0
-2483 -2484 0
-2483 -2485 0
-2483 -2486 0
-2483 -2487 0
-2483 -2488 0
-2483 -2489 0
-2483 -2490 0
-2483 -2491 0
-2483 -2492 0
-2483 -2493 0
-2483 -2494 0
-2483 -2495 0
-2483 -2496 0
-2484 -2485 0
-2484 -2486 0
-2484 -2487 0
-2484 -2488 0
-2484 -2489 0
-2484 -2490 0
-2484 -2491 0
-2484 -2492 0
-2484 -2493 0
-2484 -2494 0
-2484 -2495 0
-2484 -2496 0
-2485 -2486 0
-2485 -2487 0
-2485 -2488 0
-2485 -2489 0
-2485 -2490 0
-2485 -2491 0
-2485 -2492 0
-2485 -2493 0
-2485 -2494 0
-2485 -2495 0
-2485 -2496 0
-2486 -2487 0
-2486 -2488 0
-2486 -2489 0
-2486 -2490 0
-2486 -2491 0
-2486 -2492 0
-2486 -2493 0
-2486 -2494 0
-2486 -2495 0
-2486 -2496 0
-2487 -2488 0
-2487 -2489 0
-2487 -2490 0
-2487 -2491 0
-2487 -2492 0
-2487 -2493 0
-2487 -2494 0
-2487 -2495 0
-2487 -2496 0
-2488 -2489 0
-2488 -2490 0
-2488 -2491 0
-2488 -2492 0
-2488 -2493 0
-2488 -2494 0
-2488 -2495 0
-2488 -2496 0
-2489 -2490 0
-2489 -2491 0
-2489 -2492 0
-2489 -2493 0
-2489 -2494 0
-2489 -2495 0
-2489 -2496 0
-2490 -2491 0
-2490 -2492 0
-2490 -2493 0
-2490 -2494 0
-2490 -2495 0
-2490 -2496 0
-2491 -2492 0
-2491 -2493 0
-2491 -2494 0
-2491 -2495 0
-2491 -2496 0
-2492 -2493 0
-2492 -2494 0
-2492 -2495 0
-2492 -2496 0
-2493 -2494 0
-2493 -2495 0
-2493 -2496 0
-2494 -2495 0
-2494 -2496 0
-2495 -2496 0
2497 2498 2499 2500 2501 2502 2503 2504 2505 2506 2507 2508 2509 2510 2511 2512 0
-2497 -2498 0
-2497 -2499 0
-2497 -2500 0
-2497 -2501 0
-2497 -2502 0
-2497 -2503 0
-2497 -2504 0
-2497 -2505 0
-2497 -2506 0
-2497 -2507 0
-2497 -2508 0
-2497 -2509 0
-2497 -2510 0
-2497 -2511 0
-2497 -2512 0
-2498 -2499 0
-2498 -2500 0
-2498 -2501 0
-2498 -2502 0
-2498 -2503 0
-2498 -2504 0
-2498 -2505 0
-2498 -2506 0
-2498 -2507 0
-2498 -2508 0
-2498 -2509 0
-2498 -2510 0
-2498 -2511 0
-2498 -2512 0
-2499 -2500 0
-2499 -2501 0
-2499 -2502 0
-2499 -2503 0
-2499 -2504 0
-2499 -2505 0
-2499 -2506 0
-2499 -2507 0
-2499 -2508 0
-2499 -2509 0
-2499 -2510 0
-2499 -2511 0
-2499 -2512 0
-2500 -2501 0
-2500 -2502 0
-2500 -2503 0
-2500 -2504 0
-2500 -2505 0
-2500 -2506 0
-2500 -2507 0
-2500 -2508 0
-2500 -2509 0
-2500 -2510 0
-2500 -2511 0
-2500 -2512 0
-2501 -2502 0
-2501 -2503 0
-2501 -2504 0
-2501 -2505 0
-2501 -2506 0
-2501 -2507 0
-2501 -2508 0
-2501 -2509 0
-2501 -2510 0
-2501 -2511 0
-2501 -2512 0
-2502 -2503 0
-2502 -2504 0
-2502 -2505 0
-2502 -2506 0
-2502 -2507 0
-2502 -2508 0
-2502 -2509 0
-2502 -2510 0
-2502 -2511 0
-2502 -2512 0
-2503 -2504 0
-2503 -2505 0
-2503 -2506 0
-2503 -2507 0
-2503 -2508 0
-2503 -2509 0
-2503 -2510 0
-2503 -2511 0
-2503 -2512 0
-2504 -2505 0
-2504 -2506 0
-2504 -2507 0
-2504 -2508 0
-2504 -2509 0
-2504 -2510 0
-2504 -2511 0
-2504 -2512 0
-2505 -2506 0
-2505 -2507 0
-2505 -2508 0
-2505 -2509 0
-2505 -2510 0
-2505 -2511 0
-2505 -2512 0
-2506 -2507 0
-2506 -2508 0
-2506 -2509 0
-2506 -2510 0
-2506 -2511 0
-2506 -2512 0
-2507 -2508 0
-2507 -2509 0
-2507 -2510 0
-2507 -2511 0
-2507 -2512 0
-2508 -2509 0
-2508 -2510 0
-2508 -2511 0
-2508 -2512 0
-2509 -2510 0
-2509 -2511 0
-2509 -2512 0
-2510 -2511 0
-2510 -2512 0
-2511 -2512 0
2513 2514 2515 2516 2517 2518 2519 2520 2521 2522 2523 2524 2525 2526 2527 2528 0
-2513 -2514 0
-2513 -2515 0
-2513 -2516 0
-2513 -2517 0
-2513 -2518 0
-2513 -2519 0
-2513 -2520 0
-2513 -2521 0
-2513 -2522 0
-2513 -2523 0
-2513 -2524 0
-2513 -2525 0
-2513 -2526 0
-2513 -2527 0
-2513 -2528 0
-2514 -2515 0
-2514 -2516 0
-2514 -2517 0
-2514 -2518 0
-2514 -2519 0
-2514 -2520 0
-2514 -2521 0
-2514 -2522 0
-2514 -2523 0
-2514 -2524 0
-2514 -2525 0
-2514 -2526 0
-2514 -2527 0
-2514 -2528 0
-2515 -2516 0
-2515 -2517 0
-2515 -2518 0
-2515 -2519 0
-2515 -2520 0
-2515 -2521 0
-2515 -2522 0
-2515 -2523 0
-2515 -2524 0
-2515 -2525 0
-2515 -2526 0
-2515 -2527 0
-2515 -2528 0
-2516 -2517 0
-2516 -2518 0
-2516 -2519 0
-2516 -2520 0
-2516 -2521 0
-2516 -2522 0
-2516 -2523 0
-2516 -2524 0
-2516 -2525 0
-2516 -2526 0
-2516 -2527 0
-2516 -2528 0
-2517 -2518 0
-2517 -2519 0
-2517 -2520 0
-2517 -2521 0
-2517 -2522 0
-2517 -2523 0
-2517 -2524 0
-2517 -2525 0
-2517 -2526 0
-2517 -2527 0
-2517 -2528 0
-2518 -2519 0
-2518 -2520 0
-2518 -2521 0
-2518 -2522 0
-2518 -2523 0
-2518 -2524 0
-2518 -2525 0
-2518 -2526 0
-2518 -2527 0
-2518 -2528 0
-2519 -2520 0
-2519 -2521 0
-2519 -2522 0
-2519 -2523 0
-2519 -2524 0
-2519 -2525 0
-2519 -2526 0
-2519 -2527 0
-2519 -2528 0
-2520 -2521 0
-2520 -2522 0
-2520 -2523 0
-2520 -2524 0
-2520 -2525 0
-2520 -2526 0
-2520 -2527 0
-2520 -2528 0
-2521 -2522 0
-2521 -2523 0
-2521 -2524 0
-2521 -2525 0
-2521 -2526 0
-2521 -2527 0
-2521 -2528 0
-2522 -2523 0
-2522 -2524 0
-2522 -2525 0
-2522 -2526 0
-2522 -2527 0
-2522 -2528 0
-2523 -2524 0
-2523 -2525 0
-2523 -2526 0
-2523 -2527 0
-2523 -2528 0
-2524 -2525 0
-2524 -2526 0
-2524 -2527 0
-2524 -2528 0
-2525 -2526 0
-2525 -2527 0
-2525 -2528 0
-2526 -2527 0
-2526 -2528 0
-2527 -2528 0
2529 2530 2531 2532 2533 2534 2535 2536 2537 2538 2539 2540 2541 2542 2543 2544 0
-2529 -2530 0
-2529 -2531 0
-2529 -2532 0
-2529 -2533 0
-2529 -2534 0
-2529 -2535 0
-2529 -2536 0
-2529 -2537 0
-2529 -2538 0
-2529 -2539 0
-2529 -2540 0
-2529 -2541 0
-2529 -2542 0
-2529 -2543 0
-2529 -2544 0
-2530 -2531 0
-2530 -2532 0
-2530 -2533 0
-2530 -2534 0
-2530 -2535 0
-2530 -2536 0
-2530 -2537 0
-2530 -2538 0
-2530 -2539 0
-2530 -2540 0
-2530 -2541 0
-2530 -2542 0
-2530 -2543 0
-2530 -2544 0
-2531 -2532 0
-2531 -2533 0
-2531 -2534 0
-2531 -2535 0
-2531 -2536 0
-2531 -2537 0
-2531 -2538 0
-2531 -2539 0
-2531 -2540 0
-2531 -2541 0
-2531 -2542 0
-2531 -2543 0
-2531 -2544 0
-2532 -2533 0
-2532 -2534 0
-2532 -2535 0
-2532 -2536 0
-2532 -2537 0
-2532 -2538 0
-2532 -2539 0
-2532 -2540 0
-2532 -2541 0
-2532 -2542 0
-2532 -2543 0
-2532 -2544 0
-2533 -2534 0
-2533 -2535 0
-2533 -2536 0
-2533 -2537 0
-2533 -2538 0
-2533 -2539 0
-2533 -2540 0
-2533 -2541 0
-2533 -2542 0
-2533 -2543 0
-2533 -2544 0
-2534 -2535 0
-2534 -2536 0
-2534 -2537 0
-2534 -2538 0
-2534 -2539 0
-2534 -2540 0
-2534 -2541 0
-2534 -2542 0
-2534 -2543 0
-2534 -2544 0
-2535 -2536 0
-2535 -2537 0
-2535 -2538 0
-2535 -2539 0
-2535 -2540 0
-2535 -2541 0
-2535 -2542 0
-2535 -2543 0
-2535 -2544 0
-2536 -2537 0
-2536 -2538 0
-2536 -2539 0
-2536 -2540 0
-2536 -2541 0
-2536 -2542 0
-2536 -2543 0
-2536 -2544 0
-2537 -2538 0
-2537 -2539 0
-2537 -2540 0
-2537 -2541 0
-2537 -2542 0
-2537 -2543 0
-2537 -2544 0
-2538 -2539 0
-2538 -2540 0
-2538 -2541 0
-2538 -2542 0
-2538 -2543 0
-2538 -2544 0
-2539 -2540 0
-2539 -2541 0
-2539 -2542 0
-2539 -2543 0
-2539 -2544 0
-2540 -2541 0
-2540 -2542 0
-2540 -2543 0
-2540 -2544 0
-2541 -2542 0
-2541 -2543 0
-2541 -2544 0
-2542 -2543 0
-2542 -2544 0
-2543 -2544 0
2545 2546 2547 2548 2549 2550 2551 2552 2553 2554 2555 2556 2557 2558 2559 2560 0
-2545 -2546 0
-2545 -2547 0
-2545 -2548 0
-2545 -2549 0
-2545 -2550 0
-2545 -2551 0
-2545 -2552 0
-2545 -2553 0
-2545 -2554 0
-2545 -2555 0
-2545 -2556 0
-2545 -2557 0
-2545 -2558 0
-2545 -2559 0
-2545 -2560 0
-2546 -2547 0
-2546 -2548 0
-2546 -2549 0
-2546 -2550 0
-2546 -2551 0
-2546 -2552 0
-2546 -2553 0
-2546 -2554 0
-2546 -2555 0
-2546 -2556 0
-2546 -2557 0
-2546 -2558 0
-2546 -2559 0
-2546 -2560 0
-2547 -2548 0
-2547 -2549 0
-2547 -2550 0
-2547 -2551 0
-2547 -2552 0
-2547 -2553 0
-2547 -2554 0
-2547 -2555 0
-2547 -2556 0
-2547 -2557 0
-2547 -2558 0
-2547 -2559 0
-2547 -2560 0
-2548 -2549 0
-2548 -2550 0
-2548 -2551 0
-2548 -2552 0
-2548 -2553 0
-2548 -2554 0
-2548 -2555 0
-2548 -2556 0
-2548 -2557 0
-2548 -2558 0
-2548 -2559 0
-2548 -2560 0
-2549 -2550 0
-2549 -2551 0
-2549 -2552 0
-2549 -2553 0
-2549 -2554 0
-2549 -2555 0
-2549 -2556 0
-2549 -2557 0
-2549 -2558 0
-2549 -2559 0
-2549 -2560 0
-2550 -2551 0
-2550 -2552 0
-2550 -2553 0
-2550 -2554 0
-2550 -2555 0
-2550 -2556 0
-2550 -2557 0
-2550 -2558 0
-2550 -2559 0
-2550 -2560 0
-2551 -2552 0
-2551 -2553 0
-2551 -2554 0
-2551 -2555 0
-2551 -2556 0
-2551 -2557 0
-2551 -2558 0
-2551 -2559 0
-2551 -2560 0
-2552 -2553 0
-2552 -2554 0
-2552 -2555 0
-2552 -2556 0
-2552 -2557 0
-2552 -2558 0
-2552 -2559 0
-2552 -2560 0
-2553 -2554 0
-2553 -2555 0
-2553 -2556 0
-2553 -2557 0
-2553 -2558 0
-2553 -2559 0
-2553 -2560 0
-2554 -2555 0
-2554 -2556 0
-2554 -2557 0
-2554 -2558 0
-2554 -2559 0
-2554 -2560 0
-2555 -2556 0
-2555 -2557 0
-2555 -2558 0
-2555 -2559 0
-2555 -2560 0
-2556 -2557 0
-2556 -2558 0
-2556 -2559 0
-2556 -2560 0
-2557 -2558 0
-2557 -2559 0
-2557 -2560 0
-2558 -2559 0
-2558 -2560 0
-2559 -2560 0
2561 2562 2563 2564 2565 2566 2567 2568 2569 2570 2571 2572 2573 2574 2575 2576 0
-2561 -2562 0
-2561 -2563 0
-2561 -2564 0
-2561 -2565 0
-2561 -2566 0
-2561 -2567 0
-2561 -2568 0
-2561 -2569 0
-2561 -2570 0
-2561 -2571 0
-2561 -2572 0
-2561 -2573 0
-2561 -2574 0
-2561 -2575 0
-2561 -2576 0
-2562 -2563 0
-2562 -2564 0
-2562 -2565 0
-2562 -2566 0
-2562 -2567 0
-2562 -2568 0
-2562 -2569 0
-2562 -2570 0
-2562 -2571 0
-2562 -2572 0
-2562 -2573 0
-2562 -2574 0
-2562 -2575 0
-2562 -2576 0
-2563 -2564 0
-2563 -2565 0
-2563 -2566 0
-2563 -2567 0
-2563 -2568 0
-2563 -2569 0
-2563 -2570 0
-2563 -2571 0
-2563 -2572 0
-2563 -2573 0
-2563 -2574 0
-2563 -2575 0
-2563 -2576 0
-2564 -2565 0
-2564 -2566 0
-2564 -2567 0
-2564 -2568 0
-2564 -2569 0
-2564 -2570 0
-2564 -2571 0
-2564 -2572 0
-2564 -2573 0
-2564 -2574 0
-2564 -2575 0
-2564 -2576 0
-2565 -2566 0
-2565 -2567 0
-2565 -2568 0
-2565 -2569 0
-2565 -2570 0
-2565 -2571 0
-2565 -2572 0
-2565 -2573 0
-2565 -2574 0
-2565 -2575 0
-2565 -2576 0
-2566 -2567 0
-2566 -2568 0
-2566 -2569 0
-2566 -2570 0
-2566 -2571 0
-2566 -2572 0
-2566 -2573 0
-2566 -2574 0
-2566 -2575 0
-2566 -2576 0
-2567 -2568 0
-2567 -2569 0
-2567 -2570 0
-2567 -2571 0
-2567 -2572 0
-2567 -2573 0
-2567 -2574 0
-2567 -2575 0
-2567 -2576 0
-2568 -2569 0
-2568 -2570 0
-2568 -2571 0
-2568 -2572 0
-2568 -2573 0
-2568 -2574 0
-2568 -2575 0
-2568 -2576 0
-2569 -2570 0
-2569 -2571 0
-2569 -2572 0
-2569 -2573 0
-2569 -2574 0
-2569 -2575 0
-2569 -2576 0
-2570 -2571 0
-2570 -2572 0
-2570 -2573 0
-2570 -2574 0
-2570 -2575 0
-2570 -2576 0
-2571 -2572 0
-2571 -2573 0
-2571 -2574 0
-2571 -2575 0
-2571 -2576 0
-2572 -2573 0
-2572 -2574 0
-2572 -2575 0
-2572 -2576 0
-2573 -2574 0
-2573 -2575 0
-2573 -2576 0
-2574 -2575 0
-2574 -2576 0
-2575 -2576 0
2577 2578 2579 2580 2581 2582 2583 2584 2585 2586 2587 2588 2589 2590 2591 2592 0
-2577 -2578 0
-2577 -2579 0
-2577 -2580 0
-2577 -2581 0
-2577 -2582 0
-2577 -2583 0
-2577 -2584 0
-2577 -2585 0
-2577 -2586 0
-2577 -2587 0
-2577 -2588 0
-2577 -2589 0
-2577 -2590 0
-2577 -2591 0
-2577 -2592 0
-2578 -2579 0
-2578 -2580 0
-2578 -2581 0
-2578 -2582 0
-2578 -2583 0
-2578 -2584 0
-2578 -2585 0
-2578 -2586 0
-2578 -2587 0
-2578 -2588 0
-2578 -2589 0
-2578 -2590 0
-2578 -2591 0
-2578 -2592 0
-2579 -2580 0
-2579 -2581 0
-2579 -2582 0
-2579 -2583 0
-2579 -2584 0
-2579 -2585 0
-2579 -2586 0
-2579 -2587 0
-2579 -2588 0
-2579 -2589 0
-2579 -2590 0
-2579 -2591 0
-2579 -2592 0
-2580 -2581 0
-2580 -2582 0
-2580 -2583 0
-2580 -2584 0
-2580 -2585 0
-2580 -2586 0
-2580 -2587 0
-2580 -2588 0
-2580 -2589 0
-2580 -2590 0
-2580 -2591 0
-2580 -2592 0
-2581 -2582 0
-2581 -2583 0
-2581 -2584 0
-2581 -2585 0
-2581 -2586 0
-2581 -2587 0
-2581 -2588 0
-2581 -2589 0
-2581 -2590 0
-2581 -2591 0
-2581 -2592 0
-2582 -2583 0
-2582 -2584 0
-2582 -2585 0
-2582 -2586 0
-2582 -2587 0
-2582 -2588 0
-2582 -2589 0
-2582 -2590 0
-2582 -2591 0
-2582 -2592 0
-2583 -2584 0
-2583 -2585 0
-2583 -2586 0
-2583 -2587 0
-2583 -2588 0
-2583 -2589 0
-2583 -2590 0
-2583 -2591 0
-2583 -2592 0
-2584 -2585 0
-2584 -2586 0
-2584 -2587 0
-2584 -2588 0
-2584 -2589 0
-2584 -2590 0
-2584 -2591 0
-2584 -2592 0
-2585 -2586 0
-2585 -2587 0
-2585 -2588 0
-2585 -2589 0
-2585 -2590 0
-2585 -2591 0
-2585 -2592 0
-2586 -2587 0
-2586 -2588 0
-2586 -2589 0
-2586 -2590 0
-2586 -2591 0
-2586 -2592 0
-2587 -2588 0
-2587 -2589 0
-2587 -2590 0
-2587 -2591 0
-2587 -2592 0
-2588 -2589 0
-2588 -2590 0
-2588 -2591 0
-2588 -2592 0
-2589 -2590 0
-2589 -2591 0
-2589 -2592 0
-2590 -2591 0
-2590 -2592 0
-2591 -2592 0
2593 2594 2595 2596 2597 2598 2599 2600 2601 2602 2603 2604 2605 2606 2607 2608 0
-2593 -2594 0
-2593 -2595 0
-2593 -2596 0
-2593 -2597 0
-2593 -2598 0
-2593 -2599 0
-2593 -2600 0
-2593 -2601 0
-2593 -2602 0
-2593 -2603 0
-2593 -2604 0
-2593 -2605 0
-2593 -2606 0
-2593 -2607 0
-2593 -2608 0
-2594 -2595 0
-2594 -2596 0
-2594 -2597 0
-2594 -2598 0
-2594 -2599 0
-2594 -2600 0
-2594 -2601 0
-2594 -2602 0
-2594 -2603 0
-2594 -2604 0
-2594 -2605 0
-2594 -2606 0
-2594 -2607 0
-2594 -2608 0
-2595 -2596 0
-2595 -2597 0
-2595 -2598 0
-2595 -2599 0
-2595 -2600 0
-2595 -2601 0
-2595 -2602 0
-2595 -2603 0
-2595 -2604 0
-2595 -2605 0
-2595 -2606 0
-2595 -2607 0
-2595 -2608 0
-2596 -2597 0
-2596 -2598 0
-2596 -2599 0
-2596 -2600 0
-2596 -2601 0
-2596 -2602 0
-2596 -2603 0
-2596 -2604 0
-2596 -2605 0
-2596 -2606 0
-2596 -2607 0
-2596 -2608 0
-2597 -2598 0
-2597 -2599 0
-2597 -2600 0
-2597 -2601 0
-2597 -2602 0
-2597 -2603 0
-2597 -2604 0
-2597 -2605 0
-2597 -2606 0
-2597 -2607 0
-2597 -2608 0
-2598 -2599 0
-2598 -2600 0
-2598 -2601 0
-2598 -2602 0
-2598 -2603 0
-2598 -2604 0
-2598 -2605 0
-2598 -2606 0
-2598 -2607 0
-2598 -2608 0
-2599 -2600 0
-2599 -2601 0
-2599 -2602 0
-2599 -2603 0
-2599 -2604 0
-2599 -2605 0
-2599 -2606 0
-2599 -2607 0
-2599 -2608 0
-2600 -2601 0
-2600 -2602 0
-2600 -2603 0
-2600 -2604 0
-2600 -2605 0
-2600 -2606 0
-2600 -2607 0
-2600 -2608 0
-2601 -2602 0
-2601 -2603 0
-2601 -2604 0
-2601 -2605 0
-2601 -2606 0
-2601 -2607 0
-2601 -2608 0
-2602 -2603 0
-2602 -2604 0
-2602 -2605 0
-2602 -2606 0
-2602 -2607 0
-2602 -2608 0
-2603 -2604 0
-2603 -2605 0
-2603 -2606 0
-2603 -2607 0
-2603 -2608 0
-2604 -2605 0
-2604 -2606 0
-2604 -2607 0
-2604 -2608 0
-2605 -2606 0
-2605 -2607 0
-2605 -2608 0
-2606 -2607 0
-2606 -2608 0
-2607 -2608 0
2609 2610 2611 2612 2613 2614 2615 2616 2617 2618 2619 2620 2621 2622 2623 2624 0
-2609 -2610 0
-2609 -2611 0
-2609 -2612 0
-2609 -2613 0
-2609 -2614 0
-2609 -2615 0
-2609 -2616 0
-2609 -2617 0
-2609 -2618 0
-2609 -2619 0
-2609 -2620 0
-2609 -2621 0
-2609 -2622 0
-2609 -2623 0
-2609 -2624 0
-2610 -2611 0
-2610 -2612 0
-2610 -2613 0
-2610 -2614 0
-2610 -2615 0
-2610 -2616 0
-2610 -2617 0
-2610 -2618 0
-2610 -2619 0
-2610 -2620 0
-2610 -2621 0
-2610 -2622 0
-2610 -2623 0
-2610 -2624 0
-2611 -2612 0
-2611 -2613 0
-2611 -2614 0
-2611 -2615 0
-2611 -2616 0
-2611 -2617 0
-2611 -2618 0
-2611 -2619 0
-2611 -2620 0
-2611 -2621 0
-2611 -2622 0
-2611 -2623 0
-2611 -2624 0
-2612 -2613 0
-2612 -2614 0
-2612 -2615 0
-2612 -2616 0
-2612 -2617 0
-2612 -2618 0
-2612 -2619 0
-2612 -2620 0
-2612 -2621 0
-2612 -2622 0
-2612 -2623 0
-2612 -2624 0
-2613 -2614 0
-2613 -2615 0
-2613 -2616 0
-2613 -2617 0
-2613 -2618 0
-2613 -2619 0
-2613 -2620 0
-2613 -2621 0
-2613 -2622 0
-2613 -2623 0
-2613 -2624 0
-2614 -2615 0
-2614 -2616 0
-2614 -2617 0
-2614 -2618 0
-2614 -2619 0
-2614 -2620 0
-2614 -2621 0
-2614 -2622 0
-2614 -2623 0
-2614 -2624 0
-2615 -2616 0
-2615 -2617 0
-2615 -2618 0
-2615 -2619 0
-2615 -2620 0
-2615 -2621 0
-2615 -2622 0
-2615 -2623 0
-2615 -2624 0
-2616 -2617 0
-2616 -2618 0
-2616 -2619 0
-2616 -2620 0
-2616 -2621 0
-2616 -2622 0
-2616 -2623 0
-2616 -2624 0
-2617 -2618 0
-2617 -2619 0
-2617 -2620 0
-2617 -2621 0
-2617 -2622 0
-2617 -2623 0
-2617 -2624 0
-2618 -2619 0
-2618 -2620 0
-2618 -2621 0
-2618 -2622 0
-2618 -2623 0
-2618 -2624 0
-2619 -2620 0
-2619 -2621 0
-2619 -2622 0
-2619 -2623 0
-2619 -2624 0
-2620 -2621 0
-2620 -2622 0
-2620 -2623 0
-2620 -2624 0
-2621 -2622 0
-2621 -2623 0
-2621 -2624 0
-2622 -2623 0
-2622 -2624 0
-2623 -2624 0
2625 2626 2627 2628 2629 2630 2631 2632 2633 2634 2635 2636 2637 2638 2639 2640 0
-2625 -2626 0
-2625 -2627 0
-2625 -2628 0
-2625 -2629 0
-2625 -2630 0
-2625 -2631 0
-2625 -2632 0
-2625 -2633 0
-2625 -2634 0
-2625 -2635 0
-2625 -2636 0
-2625 -2637 0
-2625 -2638 0
-2625 -2639 0
-2625 -2640 0
-2626 -2627 0
-2626 -2628 0
-2626 -2629 0
-2626 -2630 0
-2626 -2631 0
-2626 -2632 0
-2626 -2633 0
-2626 -2634 0
-2626 -2635 0
-2626 -2636 0
-2626 -2637 0
-2626 -2638 0
-2626 -2639 0
-2626 -2640 0
-2627 -2628 0
-2627 -2629 0
-2627 -2630 0
-2627 -2631 0
-2627 -2632 0
-2627 -2633 0
-2627 -2634 0
-2627 -2635 0
-2627 -2636 0
-2627 -2637 0
-2627 -2638 0
-2627 -2639 0
-2627 -2640 0
-2628 -2629 0
-2628 -2630 0
-2628 -2631 0
-2628 -2632 0
-2628 -2633 0
-2628 -2634 0
-2628 -2635 0
-2628 -2636 0
-2628 -2637 0
-2628 -2638 0
-2628 -2639 0
-2628 -2640 0
-2629 -2630 0
-2629 -2631 0
-2629 -2632 0
-2629 -2633 0
-2629 -2634 0
-2629 -2635 0
-2629 -2636 0
-2629 -2637 0
-2629 -2638 0
-2629 -2639 0
-2629 -2640 0
-2630 -2631 0
-2630 -2632 0
-2630 -2633 0
-2630 -2634 0
-2630 -2635 0
-2630 -2636 0
-2630 -2637 0
-2630 -2638 0
-2630 -2639 0
-2630 -2640 0
-2631 -2632 0
-2631 -2633 0
-2631 -2634 0
-2631 -2635 0
-2631 -2636 0
-2631 -2637 0
-2631 -2638 0
-2631 -2639 0
-2631 -2640 0
-2632 -2633 0
-2632 -2634 0
-2632 -2635 0
-2632 -2636 0
-2632 -2637 0
-2632 -2638 0
-2632 -2639 0
-2632 -2640 0
-2633 -2634 0
-2633 -2635 0
-2633 -2636 0
-2633 -2637 0
-2633 -2638 0
-2633 -2639 0
-2633 -2640 0
-2634 -2635 0
-2634 -2636 0
-2634 -2637 0
-2634 -2638 0
-2634 -2639 0
-2634 -2640 0
-2635 -2636 0
-2635 -2637 0
-2635 -2638 0
-2635 -2639 0
-2635 -2640 0
-2636 -2637 0
-2636 -2638 0
-2636 -2639 0
-2636 -2640 0
-2637 -2638 0
-2637 -2639 0
-2637 -2640 0
-2638 -2639 0
-2638 -2640 0
-2639 -2640 0
2641 2642 2643 2644 2645 2646 2647 2648 2649 2650 2651 2652 2653 2654 2655 2656 0
-2641 -2642 0
-2641 -2643 0
-2641 -2644 0
-2641 -2645 0
-2641 -2646 0
-2641 -2647 0
-2641 -2648 0
-2641 -2649 0
-2641 -2650 0
-2641 -2651 0
-2641 -2652 0
-2641 -2653 0
-2641 -2654 0
-2641 -2655 0
-2641 -2656 0
-2642 -2643 0
-2642 -2644 0
-2642 -2645 0
-2642 -2646 0
-2642 -2647 0
-2642 -2648 0
-2642 -2649 0
-2642 -2650 0
-2642 -2651 0
-2642 -2652 0
-2642 -2653 0
-2642 -2654 0
-2642 -2655 0
-2642 -2656 0
-2643 -2644 0
-2643 -2645 0
-2643 -2646 0
-2643 -2647 0
-2643 -2648 0
-2643 -2649 0
-2643 -2650 0
-2643 -2651 0
-2643 -2652 0
-2643 -2653 0
-2643 -2654 0
-2643 -2655 0
-2643 -2656 0
-2644 -2645 0
-2644 -2646 0
-2644 -2647 0
-2644 -2648 0
-2644 -2649 0
-2644 -2650 0
-2644 -2651 0
-2644 -2652 0
-2644 -2653 0
-2644 -2654 0
-2644 -2655 0
-2644 -2656 0
-2645 -2646 0
-2645 -2647 0
-2645 -2648 0
-2645 -2649 0
-2645 -2650 0
-2645 -2651 0
-2645 -2652 0
-2645 -2653 0
-2645 -2654 0
-2645 -2655 0
-2645 -2656 0
-2646 -2647 0
-2646 -2648 0
-2646 -2649 0
-2646 -2650 0
-2646 -2651 0
-2646 -2652 0
-2646 -2653 0
-2646 -2654 0
-2646 -2655 0
-2646 -2656 0
-2647 -2648 0
-2647 -2649 0
-2647 -2650 0
-2647 -2651 0
-2647 -2652 0
-2647 -2653 0
-2647 -2654 0
-2647 -2655 0
-2647 -2656 0
-2648 -2649 0
-2648 -2650 0
-2648 -2651 0
-2648 -2652 0
-2648 -2653 0
-2648 -2654 0
-2648 -2655 0
-2648 -2656 0
-2649 -2650 0
-2649 -2651 0
-2649 -2652 0
-2649 -2653 0
-2649 -2654 0
-2649 -2655 0
-2649 -2656 0
-2650 -2651 0
-2650 -2652 0
-2650 -2653 0
-2650 -2654 0
-2650 -2655 0
-2650 -2656 0
-2651 -2652 0
-2651 -2653 0
-2651 -2654 0
-2651 -2655 0
-2651 -2656 0
-2652 -2653 0
-2652 -2654 0
-2652 -2655 0
-2652 -2656 0
-2653 -2654 0
-2653 -2655 0
-2653 -2656 0
-2654 -2655 0
-2654 -2656 0
-2655 -2656 0
2657 2658 2659 2660 2661 2662 2663 2664 2665 2666 2667 2668 2669 2670 2671 2672 0
-2657 -2658 0
-2657 -2659 0
-2657 -2660 0
-2657 -2661 0
-2657 -2662 0
-2657 -2663 0
-2657 -2664 0
-2657 -2665 0
-2657 -2666 0
-2657 -2667 0
-2657 -2668 0
-2657 -2669 0
-2657 -2670 0
-2657 -2671 0
-2657 -2672 0
-2658 -2659 0
-2658 -2660 0
-2658 -2661 0
-2658 -2662 0
-2658 -2663 0
-2658 -2664 0
-2658 -2665 0
-2658 -2666 0
-2658 -2667 0
-2658 -2668 0
-2658 -2669 0
-2658 -2670 0
-2658 -2671 0
-2658 -2672 0
-2659 -2660 0
-2659 -2661 0
-2659 -2662 0
-2659 -2663 0
-2659 -2664 0
-2659 -2665 0
-2659 -2666 0
-2659 -2667 0
-2659 -2668 0
-2659 -2669 0
-2659 -2670 0
-2659 -2671 0
-2659 -2672 0
-2660 -2661 0
-2660 -2662 0
-2660 -2663 0
-2660 -2664 0
-2660 -2665 0
-2660 -2666 0
-2660 -2667 0
-2660 -2668 0
-2660 -2669 0
-2660 -2670 0
-2660 -2671 0
-2660 -2672 0
-2661 -2662 0
-2661 -2663 0
-2661 -2664 0
-2661 -2665 0
-2661 -2666 0
-2661 -2667 0
-2661 -2668 0
-2661 -2669 0
-2661 -2670 0
-2661 -2671 0
-2661 -2672 0
-2662 -2663 0
-2662 -2664 0
-2662 -2665 0
-2662 -2666 0
-2662 -2667 0
-2662 -2668 0
-2662 -2669 0
-2662 -2670 0
-2662 -2671 0
-2662 -2672 0
-2663 -2664 0
-2663 -2665 0
-2663 -2666 0
-2663 -2667 0
-2663 -2668 0
-2663 -2669 0
-2663 -2670 0
-2663 -2671 0
-2663 -2672 0
-2664 -2665 0
-2664 -2666 0
-2664 -2667 0
-2664 -2668 0
-2664 -2669 0
-2664 -2670 0
-2664 -2671 0
-2664 -2672 0
-2665 -2666 0
-2665 -2667 0
-2665 -2668 0
-2665 -2669 0
-2665 -2670 0
-2665 -2671 0
-2665 -2672 0
-2666 -2667 0
-2666 -2668 0
-2666 -2669 0
-2666 -2670 0
-2666 -2671 0
-2666 -2672 0
-2667 -2668 0
-2667 -2669 0
-2667 -2670 0
-2667 -2671 0
-2667 -2672 0
-2668 -2669 0
-2668 -2670 0
-2668 -2671 0
-2668 -2672 0
-2669 -2670 0
-2669 -2671 0
-2669 -2672 0
-2670 -2671 0
-2670 -2672 0
-2671 -2672 0
2673 2674 2675 2676 2677 2678 2679 2680 2681 2682 2683 2684 2685 2686 2687 2688 0
-2673 -2674 0
-2673 -2675 0
-2673 -2676 0
-2673 -2677 0
-2673 -2678 0
-2673 -2679 0
-2673 -2680 0
-2673 -2681 0
-2673 -2682 0
-2673 -2683 0
-2673 -2684 0
-2673 -2685 0
-2673 -2686 0
-2673 -2687 0
-2673 -2688 0
-2674 -2675 0
-2674 -2676 0
-2674 -2677 0
-2674 -2678 0
-2674 -2679 0
-2674 -2680 0
-2674 -2681 0
-2674 -2682 0
-2674 -2683 0
-2674 -2684 0
-2674 -2685 0
-2674 -2686 0
-2674 -2687 0
-2674 -2688 0
-2675 -2676 0
-2675 -2677 0
-2675 -2678 0
-2675 -2679 0
-2675 -2680 0
-2675 -2681 0
-2675 -2682 0
-2675 -2683 0
-2675 -2684 0
-2675 -2685 0
-2675 -2686 0
-2675 -2687 0
-2675 -2688 0
-2676 -2677 0
-2676 -2678 0
-2676 -2679 0
-2676 -2680 0
-2676 -2681 0
-2676 -2682 0
-2676 -2683 0
-2676 -2684 0
-2676 -2685 0
-2676 -2686 0
-2676 -2687 0
-2676 -2688 0
-2677 -2678 0
-2677 -2679 0
-2677 -2680 0
-2677 -2681 0
-2677 -2682 0
-2677 -2683 0
-2677 -2684 0
-2677 -2685 0
-2677 -2686 0
-2677 -2687 0
-2677 -2688 0
-2678 -2679 0
-2678 -2680 0
-2678 -2681 0
-2678 -2682 0
-2678 -2683 0
-2678 -2684 0
-2678 -2685 0
-2678 -2686 0
-2678 -2687 0
-2678 -2688 0
-2679 -2680 0
-2679 -2681 0
-2679 -2682 0
-2679 -2683 0
-2679 -2684 0
-2679 -2685 0
-2679 -2686 0
-2679 -2687 0
-2679 -2688 0
-2680 -2681 0
-2680 -2682 0
-2680 -2683 0
-2680 -2684 0
-2680 -2685 0
-2680 -2686 0
-2680 -2687 0
-2680 -2688 0
-2681 -2682 0
-2681 -2683 0
-2681 -2684 0
-2681 -2685 0
-2681 -2686 0
-2681 -2687 0
-2681 -2688 0
-2682 -2683 0
-2682 -2684 0
-2682 -2685 0
-2682 -2686 0
-2682 -2687 0
-2682 -2688 0
-2683 -2684 0
-2683 -2685 0
-2683 -2686 0
-2683 -2687 0
-2683 -2688 0
-2684 -2685 0
-2684 -2686 0
-2684 -2687 0
-2684 -2688 0
-2685 -2686 0
-2685 -2687 0
-2685 -2688 0
-2686 -2687 0
-2686 -2688 0
-2687 -2688 0
2689 2690 2691 2692 2693 2694 2695 2696 2697 2698 2699 2700 2701 2702 2703 2704 0
-2689 -2690 0
-2689 -2691 0
-2689 -2692 0
-2689 -2693 0
-2689 -2694 0
-2689 -2695 0
-2689 -2696 0
-2689 -2697 0
-2689 -2698 0
-2689 -2699 0
-2689 -2700 0
-2689 -2701 0
-2689 -2702 0
-2689 -2703 0
-2689 -2704 0
-2690 -2691 0
-2690 -2692 0
-2690 -2693 0
-2690 -2694 0
-2690 -2695 0
-2690 -2696 0
-2690 -2697 0
-2690 -2698 0
-2690 -2699 0
-2690 -2700 0
-2690 -2701 0
-2690 -2702 0
-2690 -2703 0
-2690 -2704 0
-2691 -2692 0
-2691 -2693 0
-2691 -2694 0
-2691 -2695 0
-2691 -2696 0
-2691 -2697 0
-2691 -2698 0
-2691 -2699 0
-2691 -2700 0
-2691 -2701 0
-2691 -2702 0
-2691 -2703 0
-2691 -2704 0
-2692 -2693 0
-2692 -2694 0
-2692 -2695 0
-2692 -2696 0
-2692 -2697 0
-2692 -2698 0
-2692 -2699 0
-2692 -2700 0
-2692 -2701 0
-2692 -2702 0
-2692 -2703 0
-2692 -2704 0
-2693 -2694 0
-2693 -2695 0
-2693 -2696 0
-2693 -2697 0
-2693 -2698 0
-2693 -2699 0
-2693 -2700 0
-2693 -2701 0
-2693 -2702 0
-2693 -2703 0
-2693 -2704 0
-2694 -2695 0
-2694 -2696 0
-2694 -2697 0
-2694 -2698 0
-2694 -2699 0
-2694 -2700 0
-2694 -2701 0
-2694 -2702 0
-2694 -2703 0
-2694 -2704 0
-2695 -2696 0
-2695 -2697 0
-2695 -2698 0
-2695 -2699 0
-2695 -2700 0
-2695 -2701 0
-2695 -2702 0
-2695 -2703 0
-2695 -2704 0
-2696 -2697 0
-2696 -2698 0
-2696 -2699 0
-2696 -2700 0
-2696 -2701 0
-2696 -2702 0
-2696 -2703 0
-2696 -2704 0
-2697 -2698 0
-2697 -2699 0
-2697 -2700 0
-2697 -2701 0
-2697 -2702 0
-2697 -2703 0
-2697 -2704 0
-2698 -2699 0
-2698 -2700 0
-2698 -2701 0
-2698 -2702 0
-2698 -2703 0
-2698 -2704 0
-2699 -2700 0
-2699 -2701 0
-2699 -2702 0
-2699 -2703 0
-2699 -2704 0
-2700 -2701 0
-2700 -2702 0
-2700 -2703 0
-2700 -2704 0
-2701 -2702 0
-2701 -2703 0
-2701 -2704 0
-2702 -2703 0
-2702 -2704 0
-2703 -2704 0
2705 2706 2707 2708 2709 2710 2711 2712 2713 2714 2715 2716 2717 2718 2719 2720 0
-2705 -2706 0
-2705 -2707 0
-2705 -2708 0
-2705 -2709 0
-2705 -2710 0
-2705 -2711 0
-2705 -2712 0
-2705 -2713 0
-2705 -2714 0
-2705 -2715 0
-2705 -2716 0
-2705 -2717 0
-2705 -2718 0
-2705 -2719 0
-2705 -2720 0
-2706 -2707 0
-2706 -2708 0
-2706 -2709 0
-2706 -2710 0
-2706 -2711 0
-2706 -2712 0
-2706 -2713 0
-2706 -2714 0
-2706 -2715 0
-2706 -2716 0
-2706 -2717 0
-2706 -2718 0
-2706 -2719 0
-2706 -2720 0
-2707 -2708 0
-2707 -2709 0
-2707 -2710 0
-2707 -2711 0
-2707 -2712 0
-2707 -2713 0
-2707 -2714 0
-2707 -2715 0
-2707 -2716 0
-2707 -2717 0
-2707 -2718 0
-2707 -2719 0
-2707 -2720 0
-2708 -2709 0
-2708 -2710 0
-2708 -2711 0
-2708 -2712 0
-2708 -2713 0
-2708 -2714 0
-2708 -2715 0
-2708 -2716 0
-2708 -2717 0
-2708 -2718 0
-2708 -2719 0
-2708 -2720 0
-2709 -2710 0
-2709 -2711 0
-2709 -2712 0
-2709 -2713 0
-2709 -2714 0
-2709 -2715 0
-2709 -2716 0
-2709 -2717 0
-2709 -2718 0
-2709 -2719 0
-2709 -2720 0
-2710 -2711 0
-2710 -2712 0
-2710 -2713 0
-2710 -2714 0
-2710 -2715 0
-2710 -2716 0
-2710 -2717 0
-2710 -2718 0
-2710 -2719 0
-2710 -2720 0
-2711 -2712 0
-2711 -2713 0
-2711 -2714 0
-2711 -2715 0
-2711 -2716 0
-2711 -2717 0
-2711 -2718 0
-2711 -2719 0
-2711 -2720 0
-2712 -2713 0
-2712 -2714 0
-2712 -2715 0
-2712 -2716 0
-2712 -2717 0
-2712 -2718 0
-2712 -2719 0
-2712 -2720 0
-2713 -2714 0
-2713 -2715 0
-2713 -2716 0
-2713 -2717 0
-2713 -2718 0
-2713 -2719 0
-2713 -2720 0
-2714 -2715 0
-2714 -2716 0
-2714 -2717 0
-2714 -2718 0
-2714 -2719 0
-2714 -2720 0
-2715 -2716 0
-2715 -2717 0
-2715 -2718 0
-2715 -2719 0
-2715 -2720 0
-2716 -2717 0
-2716 -2718 0
-2716 -2719 0
-2716 -2720 0
-2717 -2718 0
-2717 -2719 0
-2717 -2720 0
-2718 -2719 0
-2718 -2720 0
-2719 -2720 0
2721 2722 2723 2724 2725 2726 2727 2728 2729 2730 2731 2732 2733 2734 2735 2736 0
-2721 -2722 0
-2721 -2723 0
-2721 -2724 0
-2721 -2725 0
-2721 -2726 0
-2721 -2727 0
-2721 -2728 0
-2721 -2729 0
-2721 -2730 0
-2721 -2731 0
-2721 -2732 0
-2721 -2733 0
-2721 -2734 0
-2721 -2735 0
-2721 -2736 0
-2722 -2723 0
-2722 -2724 0
-2722 -2725 0
-2722 -2726 0
-2722 -2727 0
-2722 -2728 0
-2722 -2729 0
-2722 -2730 0
-2722 -2731 0
-2722 -2732 0
-2722 -2733 0
-2722 -2734 0
-2722 -2735 0
-2722 -2736 0
-2723 -2724 0
-2723 -2725 0
-2723 -2726 0
-2723 -2727 0
-2723 -2728 0
-2723 -2729 0
-2723 -2730 0
-2723 -2731 0
-2723 -2732 0
-2723 -2733 0
-2723 -2734 0
-2723 -2735 0
-2723 -2736 0
-2724 -2725 0
-2724 -2726 0
-2724 -2727 0
-2724 -2728 0
-2724 -2729 0
-2724 -2730 0
-2724 -2731 0
-2724 -2732 0
-2724 -2733 0
-2724 -2734 0
-2724 -2735 0
-2724 -2736 0
-2725 -2726 0
-2725 -2727 0
-2725 -2728 0
-2725 -2729 0
-2725 -2730 0
-2725 -2731 0
-2725 -2732 0
-2725 -2733 0
-2725 -2734 0
-2725 -2735 0
-2725 -2736 0
-2726 -2727 0
-2726 -2728 0
-2726 -2729 0
-2726 -2730 0
-2726 -2731 0
-2726 -2732 0
-2726 -2733 0
-2726 -2734 0
-2726 -2735 0
-2726 -2736 0
-2727 -2728 0
-2727 -2729 0
-2727 -2730 0
-2727 -2731 0
-2727 -2732 0
-2727 -2733 0
-2727 -2734 0
-2727 -2735 0
-2727 -2736 0
-2728 -2729 0
-2728 -2730 0
-2728 -2731 0
-2728 -2732 0
-2728 -2733 0
-2728 -2734 0
-2728 -2735 0
-2728 -2736 0
-2729 -2730 0
-2729 -2731 0
-2729 -2732 0
-2729 -2733 0
-2729 -2734 0
-2729 -2735 0
-2729 -2736 0
-2730 -2731 0
-2730 -2732 0
-2730 -2733 0
-2730 -2734 0
-2730 -2735 0
-2730 -2736 0
-2731 -2732 0
-2731 -2733 0
-2731 -2734 0
-2731 -2735 0
-2731 -2736 0
-2732 -2733 0
-2732 -2734 0
-2732 -2735 0
-2732 -2736 0
-2733 -2734 0
-2733 -2735 0
-2733 -2736 0
-2734 -2735 0
-2734 -2736 0
-2735 -2736 0
2737 2738 2739 2740 2741 2742 2743 2744 2745 2746 2747 2748 2749 2750 2751 2752 0
-2737 -2738 0
-2737 -2739 0
-2737 -2740 0
-2737 -2741 0
-2737 -2742 0
-2737 -2743 0
-2737 -2744 0
-2737 -2745 0
-2737 -2746 0
-2737 -2747 0
-2737 -2748 0
-2737 -2749 0
-2737 -2750 0
-2737 -2751 0
-2737 -2752 0
-2738 -2739 0
-2738 -2740 0
-2738 -2741 0
-2738 -2742 0
-2738 -2743 0
-2738 -2744 0
-2738 -2745 0
-2738 -2746 0
-2738 -2747 0
-2738 -2748 0
-2738 -2749 0
-2738 -2750 0
-2738 -2751 0
-2738 -2752 0
-2739 -2740 0
-2739 -2741 0
-2739 -2742 0
-2739 -2743 0
-2739 -2744 0
-2739 -2745 0
-2739 -2746 0
-2739 -2747 0
-2739 -2748 0
-2739 -2749 0
-2739 -2750 0
-2739 -2751 0
-2739 -2752 0
-2740 -2741 0
-2740 -2742 0
-2740 -2743 0
-2740 -2744 0
-2740 -2745 0
-2740 -2746 0
-2740 -2747 0
-2740 -2748 0
-2740 -2749 0
-2740 -2750 0
-2740 -2751 0
-2740 -2752 0
-2741 -2742 0
-2741 -2743 0
-2741 -2744 0
-2741 -2745 0
-2741 -2746 0
-2741 -2747 0
-2741 -2748 0
-2741 -2749 0
-2741 -2750 0
-2741 -2751 0
-2741 -2752 0
-2742 -2743 0
-2742 -2744 0
-2742 -2745 0
-2742 -2746 0
-2742 -2747 0
-2742 -2748 0
-2742 -2749 0
-2742 -2750 0
-2742 -2751 0
-2742 -2752 0
-2743 -2744 0
-2743 -2745 0
-2743 -2746 0
-2743 -2747 0
-2743 -2748 0
-2743 -2749 0
-2743 -2750 0
-2743 -2751 0
-2743 -2752 0
-2744 -2745 0
-2744 -2746 0
-2744 -2747 0
-2744 -2748 0
-2744 -2749 0
-2744 -2750 0
-2744 -2751 0
-2744 -2752 0
-2745 -2746 0
-2745 -2747 0
-2745 -2748 0
-2745 -2749 0
-2745 -2750 0
-2745 -2751 0
-2745 -2752 0
-2746 -2747 0
-2746 -2748 0
-2746 -2749 0
-2746 -2750 0
-2746 -2751 0
-2746 -2752 0
-2747 -2748 0
-2747 -2749 0
-2747 -2750 0
-2747 -2751 0
-2747 -2752 0
-2748 -2749 0
-2748 -2750 0
-2748 -2751 0
-2748 -2752 0
-2749 -2750 0
-2749 -2751 0
-2749 -2752 0
-2750 -2751 0
-2750 -2752 0
-2751 -2752 0
2753 2754 2755 2756 2757 2758 2759 2760 2761 2762 2763 2764 2765 2766 2767 2768 0
-2753 -2754 0
-2753 -2755 0
-2753 -2756 0
-2753 -2757 0
-2753 -2758 0
-2753 -2759 0
-2753 -2760 0
-2753 -2761 0
-2753 -2762 0
-2753 -2763 0
-2753 -2764 0
-2753 -2765 0
-2753 -2766 0
-2753 -2767 0
-2753 -2768 0
-2754 -2755 0
-2754 -2756 0
-2754 -2757 0
-2754 -2758 0
-2754 -2759 0
-2754 -2760 0
-2754 -2761 0
-2754 -2762 0
-2754 -2763 0
-2754 -2764 0
-2754 -2765 0
-2754 -2766 0
-2754 -2767 0
-2754 -2768 0
-2755 -2756 0
-2755 -2757 0
-2755 -2758 0
-2755 -2759 0
-2755 -2760 0
-2755 -2761 0
-2755 -2762 0
-2755 -2763 0
-2755 -2764 0
-2755 -2765 0
-2755 -2766 0
-2755 -2767 0
-2755 -2768 0
-2756 -2757 0
-2756 -2758 0
-2756 -2759 0
-2756 -2760 0
-2756 -2761 0
-2756 -2762 0
-2756 -2763 0
-2756 -2764 0
-2756 -2765 0
-2756 -2766 0
-2756 -2767 0
-2756 -2768 0
-2757 -2758 0
-2757 -2759 0
-2757 -2760 0
-2757 -2761 0
-2757 -2762 0
-2757 -2763 0
-2757 -2764 0
-2757 -2765 0
-2757 -2766 0
-2757 -2767 0
-2757 -2768 0
-2758 -2759 0
-2758 -2760 0
-2758 -2761 0
-2758 -2762 0
-2758 -2763 0
-2758 -2764 0
-2758 -2765 0
-2758 -2766 0
-2758 -2767 0
-2758 -2768 0
-2759 -2760 0
-2759 -2761 0
-2759 -2762 0
-2759 -2763 0
-2759 -2764 0
-2759 -2765 0
-2759 -2766 0
-2759 -2767 0
-2759 -2768 0
-2760 -2761 0
-2760 -2762 0
-2760 -2763 0
-2760 -2764 0
-2760 -2765 0
-2760 -2766 0
-2760 -2767 0
-2760 -2768 0
-2761 -2762 0
-2761 -2763 0
-2761 -2764 0
-2761 -2765 0
-2761 -2766 0
-2761 -2767 0
-2761 -2768 0
-2762 -2763 0
-2762 -2764 0
-2762 -2765 0
-2762 -2766 0
-2762 -2767 0
-2762 -2768 0
-2763 -2764 0
-2763 -2765 0
-2763 -2766 0
-2763 -2767 0
-2763 -2768 0
-2764 -2765 0
-2764 -2766 0
-2764 -2767 0
-2764 -2768 0
-2765 -2766 0
-2765 -2767 0
-2765 -2768 0
-2766 -2767 0
-2766 -2768 0
-2767 -2768 0
2769 2770 2771 2772 2773 2774 2775 2776 2777 2778 2779 2780 2781 2782 2783 2784 0
-2769 -2770 0
-2769 -2771 0
-2769 -2772 0
-2769 -2773 0
-2769 -2774 0
-2769 -2775 0
-2769 -2776 0
-2769 -2777 0
-2769 -2778 0
-2769 -2779 0
-2769 -2780 0
-2769 -2781 0
-2769 -2782 0
-2769 -2783 0
-2769 -2784 0
-2770 -2771 0
-2770 -2772 0
-2770 -2773 0
-2770 -2774 0
-2770 -2775 0
-2770 -2776 0
-2770 -2777 0
-2770 -2778 0
-2770 -2779 0
-2770 -2780 0
-2770 -2781 0
-2770 -2782 0
-2770 -2783 0
-2770 -2784 0
-2771 -2772 0
-2771 -2773 0
-2771 -2774 0
-2771 -2775 0
-2771 -2776 0
-2771 -2777 0
-2771 -2778 0
-2771 -2779 0
-2771 -2780 0
-2771 -2781 0
-2771 -2782 0
-2771 -2783 0
-2771 -2784 0
-2772 -2773 0
-2772 -2774 0
-2772 -2775 0
-2772 -2776 0
-2772 -2777 0
-2772 -2778 0
-2772 -2779 0
-2772 -2780 0
-2772 -2781 0
-2772 -2782 0
-2772 -2783 0
-2772 -2784 0
-2773 -2774 0
-2773 -2775 0
-2773 -2776 0
-2773 -2777 0
-2773 -2778 0
-2773 -2779 0
-2773 -2780 0
-2773 -2781 0
-2773 -2782 0
-2773 -2783 0
-2773 -2784 0
-2774 -2775 0
-2774 -2776 0
-2774 -2777 0
-2774 -2778 0
-2774 -2779 0
-2774 -2780 0
-2774 -2781 0
-2774 -2782 0
-2774 -2783 0
-2774 -2784 0
-2775 -2776 0
-2775 -2777 0
-2775 -2778 0
-2775 -2779 0
-2775 -2780 0
-2775 -2781 0
-2775 -2782 0
-2775 -2783 0
-2775 -2784 0
-2776 -2777 0
-2776 -2778 0
-2776 -2779 0
-2776 -2780 0
-2776 -2781 0
-2776 -2782 0
-2776 -2783 0
-2776 -2784 0
-2777 -2778 0
-2777 -2779 0
-2777 -2780 0
-2777 -2781 0
-2777 -2782 0
-2777 -2783 0
-2777 -2784 0
-2778 -2779 0
-2778 -2780 0
-2778 -2781 0
-2778 -2782 0
-2778 -2783 0
-2778 -2784 0
-2779 -2780 0
-2779 -2781 0
-2779 -2782 0
-2779 -2783 0
-2779 -2784 0
-2780 -2781 0
-2780 -2782 0
-2780 -2783 0
-2780 -2784 0
-2781 -2782 0
-2781 -2783 0
-2781 -2784 0
-2782 -2783 0
-2782 -2784 0
-2783 -2784 0
2785 2786 2787 2788 2789 2790 2791 2792 2793 2794 2795 2796 2797 2798 2799 2800 0
-2785 -2786 0
-2785 -2787 0
-2785 -2788 0
-2785 -2789 0
-2785 -2790 0
-2785 -2791 0
-2785 -2792 0
-2785 -2793 0
-2785 -2794 0
-2785 -2795 0
-2785 -2796 0
-2785 -2797 0
-2785 -2798 0
-2785 -2799 0
-2785 -2800 0
-2786 -2787 0
-2786 -2788 0
-2786 -2789 0
-2786 -2790 0
-2786 -2791 0
-2786 -2792 0
-2786 -2793 0
-2786 -2794 0
-2786 -2795 0
-2786 -2796 0
-2786 -2797 0
-2786 -2798 0
-2786 -2799 0
-2786 -2800 0
-2787 -2788 0
-2787 -2789 0
-2787 -2790 0
-2787 -2791 0
-2787 -2792 0
-2787 -2793 0
-2787 -2794 0
-2787 -2795 0
-2787 -2796 0
-2787 -2797 0
-2787 -2798 0
-2787 -2799 0
-2787 -2800 0
-2788 -2789 0
-2788 -2790 0
-2788 -2791 0
-2788 -2792 0
-2788 -2793 0
-2788 -2794 0
-2788 -2795 0
-2788 -2796 0
-2788 -2797 0
-2788 -2798 0
-2788 -2799 0
-2788 -2800 0
-2789 -2790 0
-2789 -2791 0
-2789 -2792 0
-2789 -2793 0
-2789 -2794 0
-2789 -2795 0
-2789 -2796 0
-2789 -2797 0
-2789 -2798 0
-2789 -2799 0
-2789 -2800 0
-2790 -2791 0
-2790 -2792 0
-2790 -2793 0
-2790 -2794 0
-2790 -2795 0
-2790 -2796 0
-2790 -2797 0
-2790 -2798 0
-2790 -2799 0
-2790 -2800 0
-2791 -2792 0
-2791 -2793 0
-2791 -2794 0
-2791 -2795 0
-2791 -2796 0
-2791 -2797 0
-2791 -2798 0
-2791 -2799 0
-2791 -2800 0
-2792 -2793 0
-2792 -2794 0
-2792 -2795 0
-2792 -2796 0
-2792 -2797 0
-2792 -2798 0
-2792 -2799 0
-2792 -2800 0
-2793 -2794 0
-2793 -2795 0
-2793 -2796 0
-2793 -2797 0
-2793 -2798 0
-2793 -2799 0
-2793 -2800 0
-2794 -2795 0
-2794 -2796 0
-2794 -2797 0
-2794 -2798 0
-2794 -2799 0
-2794 -2800 0
-2795 -2796 0
-2795 -2797 0
-2795 -2798 0
-2795 -2799 0
-2795 -2800 0
-2796 -2797 0
-2796 -2798 0
-2796 -2799 0
-2796 -2800 0
-2797 -2798 0
-2797 -2799 0
-2797 -2800 0
-2798 -2799 0
-2798 -2800 0
-2799 -2800 0
2801 2802 2803 2804 2805 2806 2807 2808 2809 2810 2811 2812 2813 2814 2815 2816 0
-2801 -2802 0
-2801 -2803 0
-2801 -2804 0
-2801 -2805 0
-2801 -2806 0
-2801 -2807 0
-2801 -2808 0
-2801 -2809 0
-2801 -2810 0
-2801 -2811 0
-2801 -2812 0
-2801 -2813 0
-2801 -2814 0
-2801 -2815 0
-2801 -2816 0
-2802 -2803 0
-2802 -2804 0
-2802 -2805 0
-2802 -2806 0
-2802 -2807 0
-2802 -2808 0
-2802 -2809 0
-2802 -2810 0
-2802 -2811 0
-2802 -2812 0
-2802 -2813 0
-2802 -2814 0
-2802 -2815 0
-2802 -2816 0
-2803 -2804 0
-2803 -2805 0
-2803 -2806 0
-2803 -2807 0
-2803 -2808 0
-2803 -2809 0
-2803 -2810 0
-2803 -2811 0
-2803 -2812 0
-2803 -2813 0
-2803 -2814 0
-2803 -2815 0
-2803 -2816 0
-2804 -2805 0
-2804 -2806 0
-2804 -2807 0
-2804 -2808 0
-2804 -2809 0
-2804 -2810 0
-2804 -2811 0
-2804 -2812 0
-2804 -2813 0
-2804 -2814 0
-2804 -2815 0
-2804 -2816 0
-2805 -2806 0
-2805 -2807 0
-2805 -2808 0
-2805 -2809 0
-2805 -2810 0
-2805 -2811 0
-2805 -2812 0
-2805 -2813 0
-2805 -2814 0
-2805 -2815 0
-2805 -2816 0
-2806 -2807 0
-2806 -2808 0
-2806 -2809 0
-2806 -2810 0
-2806 -2811 0
-2806 -2812 0
-2806 -2813 0
-2806 -2814 0
-2806 -2815 0
-2806 -2816 0
-2807 -2808 0
-2807 -2809 0
-2807 -2810 0
-2807 -2811 0
-2807 -2812 0
-2807 -2813 0
-2807 -2814 0
-2807 -2815 0
-2807 -2816 0
-2808 -2809 0
-2808 -2810 0
-2808 -2811 0
-2808 -2812 0
-2808 -2813 0
-2808 -2814 0
-2808 -2815 0
-2808 -2816 0
-2809 -2810 0
-2809 -2811 0
-2809 -2812 0
-2809 -2813 0
-2809 -2814 0
-2809 -2815 0
-2809 -2816 0
-2810 -2811 0
-2810 -2812 0
-2810 -2813 0
-2810 -2814 0
-2810 -2815 0
-2810 -2816 0
-2811 -2812 0
-2811 -2813 0
-2811 -2814 0
-2811 -2815 0
-2811 -2816 0
-2812 -2813 0
-2812 -2814 0
-2812 -2815 0
-2812 -2816 0
-2813 -2814 0
-2813 -2815 0
-2813 -2816 0
-2814 -2815 0
-2814 -2816 0
-2815 -2816 0
2817 2818 2819 2820 2821 2822 2823 2824 2825 2826 2827 2828 2829 2830 2831 2832 0
-2817 -2818 0
-2817 -2819 0
-2817 -2820 0
-2817 -2821 0
-2817 -2822 0
-2817 -2823 0
-2817 -2824 0
-2817 -2825 0
-2817 -2826 0
-2817 -2827 0
-2817 -2828 0
-2817 -2829 0
-2817 -2830 0
-2817 -2831 0
-2817 -2832 0
-2818 -2819 0
-2818 -2820 0
-2818 -2821 0
-2818 -2822 0
-2818 -2823 0
-2818 -2824 0
-2818 -2825 0
-2818 -2826 0
-2818 -2827 0
-2818 -2828 0
-2818 -2829 0
-2818 -2830 0
-2818 -2831 0
-2818 -2832 0
-2819 -2820 0
-2819 -2821 0
-2819 -2822 0
-2819 -2823 0
-2819 -2824 0
-2819 -2825 0
-2819 -2826 0
-2819 -2827 0
-2819 -2828 0
-2819 -2829 0
-2819 -2830 0
-2819 -2831 0
-2819 -2832 0
-2820 -2821 0
-2820 -2822 0
-2820 -2823 0
-2820 -2824 0
-2820 -2825 0
-2820 -2826 0
-2820 -2827 0
-2820 -2828 0
-2820 -2829 0
-2820 -2830 0
-2820 -2831 0
-2820 -2832 0
-2821 -2822 0
-2821 -2823 0
-2821 -2824 0
-2821 -2825 0
-2821 -2826 0
-2821 -2827 0
-2821 -2828 0
-2821 -2829 0
-2821 -2830 0
-2821 -2831 0
-2821 -2832 0
-2822 -2823 0
-2822 -2824 0
-2822 -2825 0
-2822 -2826 0
-2822 -2827 0
-2822 -2828 0
-2822 -2829 0
-2822 -2830 0
-2822 -2831 0
-2822 -2832 0
-2823 -2824 0
-2823 -2825 0
-2823 -2826 0
-2823 -2827 0
-2823 -2828 0
-2823 -2829 0
-2823 -2830 0
-2823 -2831 0
-2823 -2832 0
-2824 -2825 0
-2824 -2826 0
-2824 -2827 0
-2824 -2828 0
-2824 -2829 0
-2824 -2830 0
-2824 -2831 0
-2824 -2832 0
-2825 -2826 0
-2825 -2827 0
-2825 -2828 0
-2825 -2829 0
-2825 -2830 0
-2825 -2831 0
-2825 -2832 0
-2826 -2827 0
-2826 -2828 0
-2826 -2829 0
-2826 -2830 0
-2826 -2831 0
-2826 -2832 0
-2827 -2828 0
-2827 -2829 0
-2827 -2830 0
-2827 -2831 0
-2827 -2832 0
-2828 -2829 0
-2828 -2830 0
-2828 -2831 0
-2828 -2832 0
-2829 -2830 0
-2829 -2831 0
-2829 -2832 0
-2830 -2831 0
-2830 -2832 0
-2831 -2832 0
2833 2834 2835 2836 2837 2838 2839 2840 2841 2842 2843 2844 2845 2846 2847 2848 0
-2833 -2834 0
-2833 -2835 0
-2833 -2836 0
-2833 -2837 0
-2833 -2838 0
-2833 -2839 0
-2833 -2840 0
-2833 -2841 0
-2833 -2842 0
-2833 -2843 0
-2833 -2844 0
-2833 -2845 0
-2833 -2846 0
-2833 -2847 0
-2833 -2848 0
-2834 -2835 0
-2834 -2836 0
-2834 -2837 0
-2834 -2838 0
-2834 -2839 0
-2834 -2840 0
-2834 -2841 0
-2834 -2842 0
-2834 -2843 0
-2834 -2844 0
-2834 -2845 0
-2834 -2846 0
-2834 -2847 0
-2834 -2848 0
-2835 -2836 0
-2835 -2837 0
-2835 -2838 0
-2835 -2839 0
-2835 -2840 0
-2835 -2841 0
-2835 -2842 0
-2835 -2843 0
-2835 -2844 0
-2835 -2845 0
-2835 -2846 0
-2835 -2847 0
-2835 -2848 0
-2836 -2837 0
-2836 -2838 0
-2836 -2839 0
-2836 -2840 0
-2836 -2841 0
-2836 -2842 0
-2836 -2843 0
-2836 -2844 0
-2836 -2845 0
-2836 -2846 0
-2836 -2847 0
-2836 -2848 0
-2837 -2838 0
-2837 -2839 0
-2837 -2840 0
-2837 -2841 0
-2837 -2842 0
-2837 -2843 0
-2837 -2844 0
-2837 -2845 0
-2837 -2846 0
-2837 -2847 0
-2837 -2848 0
-2838 -2839 0
-2838 -2840 0
-2838 -2841 0
-2838 -2842 0
-2838 -2843 0
-2838 -2844 0
-2838 -2845 0
-2838 -2846 0
-2838 -2847 0
-2838 -2848 0
-2839 -2840 0
-2839 -2841 0
-2839 -2842 0
-2839 -2843 0
-2839 -2844 0
-2839 -2845 0
-2839 -2846 0
-2839 -2847 0
-2839 -2848 0
-2840 -2841 0
-2840 -2842 0
-2840 -2843 0
-2840 -2844 0
-2840 -2845 0
-2840 -2846 0
-2840 -2847 0
-2840 -2848 0
-2841 -2842 0
-2841 -2843 0
-2841 -2844 0
-2841 -2845 0
-2841 -2846 0
-2841 -2847 0
-2841 -2848 0
-2842 -2843 0
-2842 -2844 0
-2842 -2845 0
-2842 -2846 0
-2842 -2847 0
-2842 -2848 0
-2843 -2844 0
-2843 -2845 0
-2843 -2846 0
-2843 -2847 0
-2843 -2848 0
-2844 -2845 0
-2844 -2846 0
-2844 -2847 0
-2844 -2848 0
-2845 -2846 0
-2845 -2847 0
-2845 -2848 0
-2846 -2847 0
-2846 -2848 0
-2847 -2848 0
2849 2850 2851 2852 2853 2854 2855 2856 2857 2858 2859 2860 2861 2862 2863 2864 0
-2849 -2850 0
-2849 -2851 0
-2849 -2852 0
-2849 -2853 0
-2849 -2854 0
-2849 -2855 0
-2849 -2856 0
-2849 -2857 0
-2849 -2858 0
-2849 -2859 0
-2849 -2860 0
-2849 -2861 0
-2849 -2862 0
-2849 -2863 0
-2849 -2864 0
-2850 -2851 0
-2850 -2852 0
-2850 -2853 0
-2850 -2854 0
-2850 -2855 0
-2850 -2856 0
-2850 -2857 0
-2850 -2858 0
-2850 -2859 0
-2850 -2860 0
-2850 -2861 0
-2850 -2862 0
-2850 -2863 0
-2850 -2864 0
-2851 -2852 0
-2851 -2853 0
-2851 -2854 0
-2851 -2855 0
-2851 -2856 0
-2851 -2857 0
-2851 -2858 0
-2851 -2859 0
-2851 -2860 0
-2851 -2861 0
-2851 -2862 0
-2851 -2863 0
-2851 -2864 0
-2852 -2853 0
-2852 -2854 0
-2852 -2855 0
-2852 -2856 0
-2852 -2857 0
-2852 -2858 0
-2852 -2859 0
-2852 -2860 0
-2852 -2861 0
-2852 -2862 0
-2852 -2863 0
-2852 -2864 0
-2853 -2854 0
-2853 -2855 0
-2853 -2856 0
-2853 -2857 0
-2853 -2858 0
-2853 -2859 0
-2853 -2860 0
-2853 -2861 0
-2853 -2862 0
-2853 -2863 0
-2853 -2864 0
-2854 -2855 0
-2854 -2856 0
-2854 -2857 0
-2854 -2858 0
-2854 -2859 0
-2854 -2860 0
-2854 -2861 0
-2854 -2862 0
-2854 -2863 0
-2854 -2864 0
-2855 -2856 0
-2855 -2857 0
-2855 -2858 0
-2855 -2859 0
-2855 -2860 0
-2855 -2861 0
-2855 -2862 0
-2855 -2863 0
-2855 -2864 0
-2856 -2857 0
-2856 -2858 0
-2856 -2859 0
-2856 -2860 0
-2856 -2861 0
-2856 -2862 0
-2856 -2863 0
-2856 -2864 0
-2857 -2858 0
-2857 -2859 0
-2857 -2860 0
-2857 -2861 0
-2857 -2862 0
-2857 -2863 0
-2857 -2864 0
-2858 -2859 0
-2858 -2860 0
-2858 -2861 0
-2858 -2862 0
-2858 -2863 0
-2858 -2864 0
-2859 -2860 0
-2859 -2861 0
-2859 -2862 0
-2859 -2863 0
-2859 -2864 0
-2860 -2861 0
-2860 -2862 0
-2860 -2863 0
-2860 -2864 0
-2861 -2862 0
-2861 -2863 0
-2861 -2864 0
-2862 -2863 0
-2862 -2864 0
-2863 -2864 0
2865 2866 2867 2868 2869 2870 2871 2872 2873 2874 2875 2876 2877 2878 2879 2880 0
-2865 -2866 0
-2865 -2867 0
-2865 -2868 0
-2865 -2869 0
-2865 -2870 0
-2865 -2871 0
-2865 -2872 0
-2865 -2873 0
-2865 -2874 0
-2865 -2875 0
-2865 -2876 0
-2865 -2877 0
-2865 -2878 0
-2865 -2879 0
-2865 -2880 0
-2866 -2867 0
-2866 -2868 0
-2866 -2869 0
-2866 -2870 0
-2866 -2871 0
-2866 -2872 0
-2866 -2873 0
-2866 -2874 0
-2866 -2875 0
-2866 -2876 0
-2866 -2877 0
-2866 -2878 0
-2866 -2879 0
-2866 -2880 0
-2867 -2868 0
-2867 -2869 0
-2867 -2870 0
-2867 -2871 0
-2867 -2872 0
-2867 -2873 0
-2867 -2874 0
-2867 -2875 0
-2867 -2876 0
-2867 -2877 0
-2867 -2878 0
-2867 -2879 0
-2867 -2880 0
-2868 -2869 0
-2868 -2870 0
-2868 -2871 0
-2868 -2872 0
-2868 -2873 0
-2868 -2874 0
-2868 -2875 0
-2868 -2876 0
-2868 -2877 0
-2868 -2878 0
-2868 -2879 0
-2868 -2880 0
-2869 -2870 0
-2869 -2871 0
-2869 -2872 0
-2869 -2873 0
-2869 -2874 0
-2869 -2875 0
-2869 -2876 0
-2869 -2877 0
-2869 -2878 0
-2869 -2879 0
-2869 -2880 0
-2870 -2871 0
-2870 -2872 0
-2870 -2873 0
-2870 -2874 0
-2870 -2875 0
-2870 -2876 0
-2870 -2877 0
-2870 -2878 0
-2870 -2879 0
-2870 -2880 0
-2871 -2872 0
-2871 -2873 0
-2871 -2874 0
-2871 -2875 0
-2871 -2876 0
-2871 -2877 0
-2871 -2878 0
-2871 -2879 0
-2871 -2880 0
-2872 -2873 0
-2872 -2874 0
-2872 -2875 0
-2872 -2876 0
-2872 -2877 0
-2872 -2878 0
-2872 -2879 0
-2872 -2880 0
-2873 -2874 0
-2873 -2875 0
-2873 -2876 0
-2873 -2877 0
-2873 -2878 0
-2873 -2879 0
-2873 -2880 0
-2874 -2875 0
-2874 -2876 0
-2874 -2877 0
-2874 -2878 0
-2874 -2879 0
-2874 -2880 0
-2875 -2876 0
-2875 -2877 0
-2875 -2878 0
-2875 -2879 0
-2875 -2880 0
-2876 -2877 0
-2876 -2878 0
-2876 -2879 0
-2876 -2880 0
-2877 -2878 0
-2877 -2879 0
-2877 -2880 0
-2878 -2879 0
-2878 -2880 0
-2879 -2880 0
2881 2882 2883 2884 2885 2886 2887 2888 2889 2890 2891 2892 2893 2894 2895 2896 0
-2881 -2882 0
-2881 -2883 0
-2881 -2884 0
-2881 -2885 0
-2881 -2886 0
-2881 -2887 0
-2881 -2888 0
-2881 -2889 0
-2881 -2890 0
-2881 -2891 0
-2881 -2892 0
-2881 -2893 0
-2881 -2894 0
-2881 -2895 0
-2881 -2896 0
-2882 -2883 0
-2882 -2884 0
-2882 -2885 0
-2882 -2886 0
-2882 -2887 0
-2882 -2888 0
-2882 -2889 0
-2882 -2890 0
-2882 -2891 0
-2882 -2892 0
-2882 -2893 0
-2882 -2894 0
-2882 -2895 0
-2882 -2896 0
-2883 -2884 0
-2883 -2885 0
-2883 -2886 0
-2883 -2887 0
-2883 -2888 0
-2883 -2889 0
-2883 -2890 0
-2883 -2891 0
-2883 -2892 0
-2883 -2893 0
-2883 -2894 0
-2883 -2895 0
-2883 -2896 0
-2884 -2885 0
-2884 -2886 0
-2884 -2887 0
-2884 -2888 0
-2884 -2889 0
-2884 -2890 0
-2884 -2891 0
-2884 -2892 0
-2884 -2893 0
-2884 -2894 0
-2884 -2895 0
-2884 -2896 0
-2885 -2886 0
-2885 -2887 0
-2885 -2888 0
-2885 -2889 0
-2885 -2890 0
-2885 -2891 0
-2885 -2892 0
-2885 -2893 0
-2885 -2894 0
-2885 -2895 0
-2885 -2896 0
-2886 -2887 0
-2886 -2888 0
-2886 -2889 0
-2886 -2890 0
-2886 -2891 0
-2886 -2892 0
-2886 -2893 0
-2886 -2894 0
-2886 -2895 0
-2886 -2896 0
-2887 -2888 0
-2887 -2889 0
-2887 -2890 0
-2887 -2891 0
-2887 -2892 0
-2887 -2893 0
-2887 -2894 0
-2887 -2895 0
-2887 -2896 0
-2888 -2889 0
-2888 -2890 0
-2888 -2891 0
-2888 -2892 0
-2888 -2893 0
-2888 -2894 0
-2888 -2895 0
-2888 -2896 0
-2889 -2890 0
-2889 -2891 0
-2889 -2892 0
-2889 -2893 0
-2889 -2894 0
-2889 -2895 0
-2889 -2896 0
-2890 -2891 0
-2890 -2892 0
-2890 -2893 0
-2890 -2894 0
-2890 -2895 0
-2890 -2896 0
-2891 -2892 0
-2891 -2893 0
-2891 -2894 0
-2891 -2895 0
-2891 -2896 0
-2892 -2893 0
-2892 -2894 0
-2892 -2895 0
-2892 -2896 0
-2893 -2894 0
-2893 -2895 0
-2893 -2896 0
-2894 -2895 0
-2894 -2896 0
-2895 -2896 0
2897 2898 2899 2900 2901 2902 2903 2904 2905 2906 2907 2908 2909 2910 2911 2912 0
-2897 -2898 0
-2897 -2899 0
-2897 -2900 0
-2897 -2901 0
-2897 -2902 0
-2897 -2903 0
-2897 -2904 0
-2897 -2905 0
-2897 -2906 0
-2897 -2907 0
-2897 -2908 0
-2897 -2909 0
-2897 -2910 0
-2897 -2911 0
-2897 -2912 0
-2898 -2899 0
-2898 -2900 0
-2898 -2901 0
-2898 -2902 0
-2898 -2903 0
-2898 -2904 0
-2898 -2905 0
-2898 -2906 0
-2898 -2907 0
-2898 -2908 0
-2898 -2909 0
-2898 -2910 0
-2898 -2911 0
-2898 -2912 0
-2899 -2900 0
-2899 -2901 0
-2899 -2902 0
-2899 -2903 0
-2899 -2904 0
-2899 -2905 0
-2899 -2906 0
-2899 -2907 0
-2899 -2908 0
-2899 -2909 0
-2899 -2910 0
-2899 -2911 0
-2899 -2912 0
-2900 -2901 0
-2900 -2902 0
-2900 -2903 0
-2900 -2904 0
-2900 -2905 0
-2900 -2906 0
-2900 -2907 0
-2900 -2908 0
-2900 -2909 0
-2900 -2910 0
-2900 -2911 0
-2900 -2912 0
-2901 -2902 0
-2901 -2903 0
-2901 -2904 0
-2901 -2905 0
-2901 -2906 0
-2901 -2907 0
-2901 -2908 0
-2901 -2909 0
-2901 -2910 0
-2901 -2911 0
-2901 -2912 0
-2902 -2903 0
-2902 -2904 0
-2902 -2905 0
-2902 -2906 0
-2902 -2907 0
-2902 -2908 0
-2902 -2909 0
-2902 -2910 0
-2902 -2911 0
-2902 -2912 0
-2903 -2904 0
-2903 -2905 0
-2903 -2906 0
-2903 -2907 0
-2903 -2908 0
-2903 -2909 0
-2903 -2910 0
-2903 -2911 0
-2903 -2912 0
-2904 -2905 0
-2904 -2906 0
-2904 -2907 0
-2904 -2908 0
-2904 -2909 0
-2904 -2910 0
-2904 -2911 0
-2904 -2912 0
-2905 -2906 0
-2905 -2907 0
-2905 -2908 0
-2905 -2909 0
-2905 -2910 0
-2905 -2911 0
-2905 -2912 0
-2906 -2907 0
-2906 -2908 0
-2906 -2909 0
-2906 -2910 0
-2906 -2911 0
-2906 -2912 0
-2907 -2908 0
-2907 -2909 0
-2907 -2910 0
-2907 -2911 0
-2907 -2912 0
-2908 -2909 0
-2908 -2910 0
-2908 -2911 0
-2908 -2912 0
-2909 -2910 0
-2909 -2911 0
-2909 -2912 0
-2910 -2911 0
-2910 -2912 0
-2911 -2912 0
2913 2914 2915 2916 2917 2918 2919 2920 2921 2922 2923 2924 2925 2926 2927 2928 0
-2913 -2914 0
-2913 -2915 0
-2913 -2916 0
-2913 -2917 0
-2913 -2918 0
-2913 -2919 0
-2913 -2920 0
-2913 -2921 0
-2913 -2922 0
-2913 -2923 0
-2913 -2924 0
-2913 -2925 0
-2913 -2926 0
-2913 -2927 0
-2913 -2928 0
-2914 -2915 0
-2914 -2916 0
-2914 -2917 0
-2914 -2918 0
-2914 -2919 0
-2914 -2920 0
-2914 -2921 0
-2914 -2922 0
-2914 -2923 0
-2914 -2924 0
-2914 -2925 0
-2914 -2926 0
-2914 -2927 0
-2914 -2928 0
-2915 -2916 0
-2915 -2917 0
-2915 -2918 0
-2915 -2919 0
-2915 -2920 0
-2915 -2921 0
-2915 -2922 0
-2915 -2923 0
-2915 -2924 0
-2915 -2925 0
-2915 -2926 0
-2915 -2927 0
-2915 -2928 0
-2916 -2917 0
-2916 -2918 0
-2916 -2919 0
-2916 -2920 0
-2916 -2921 0
-2916 -2922 0
-2916 -2923 0
-2916 -2924 0
-2916 -2925 0
-2916 -2926 0
-2916 -2927 0
-2916 -2928 0
-2917 -2918 0
-2917 -2919 0
-2917 -2920 0
-2917 -2921 0
-2917 -2922 0
-2917 -2923 0
-2917 -2924 0
-2917 -2925 0
-2917 -2926 0
-2917 -2927 0
-2917 -2928 0
-2918 -2919 0
-2918 -2920 0
-2918 -2921 0
-2918 -2922 0
-2918 -2923 0
-2918 -2924 0
-2918 -2925 0
-2918 -2926 0
-2918 -2927 0
-2918 -2928 0
-2919 -2920 0
-2919 -2921 0
-2919 -2922 0
-2919 -2923 0
-2919 -2924 0
-2919 -2925 0
-2919 -2926 0
-2919 -2927 0
-2919 -2928 0
-2920 -2921 0
-2920 -2922 0
-2920 -2923 0
-2920 -2924 0
-2920 -2925 0
-2920 -2926 0
-2920 -2927 0
-2920 -2928 0
-2921 -2922 0
-2921 -2923 0
-2921 -2924 0
-2921 -2925 0
-2921 -2926 0
-2921 -2927 0
-2921 -2928 0
-2922 -2923 0
-2922 -2924 0
-2922 -2925 0
-2922 -2926 0
-2922 -2927 0
-2922 -2928 0
-2923 -2924 0
-2923 -2925 0
-2923 -2926 0
-2923 -2927 0
-2923 -2928 0
-2924 -2925 0
-2924 -2926 0
-2924 -2927 0
-2924 -2928 0
-2925 -2926 0
-2925 -2927 0
-2925 -2928 0
-2926 -2927 0
-2926 -2928 0
-2927 -2928 0
2929 2930 2931 2932 2933 2934 2935 2936 2937 2938 2939 2940 2941 2942 2943 2944 0
-2929 -2930 0
-2929 -2931 0
-2929 -2932 0
-2929 -2933 0
-2929 -2934 0
-2929 -2935 0
-2929 -2936 0
-2929 -2937 0
-2929 -2938 0
-2929 -2939 0
-2929 -2940 0
-2929 -2941 0
-2929 -2942 0
-2929 -2943 0
-2929 -2944 0
-2930 -2931 0
-2930 -2932 0
-2930 -2933 0
-2930 -2934 0
-2930 -2935 0
-2930 -2936 0
-2930 -2937 0
-2930 -2938 0
-2930 -2939 0
-2930 -2940 0
-2930 -2941 0
-2930 -2942 0
-2930 -2943 0
-2930 -2944 0
-2931 -2932 0
-2931 -2933 0
-2931 -2934 0
-2931 -2935 0
-2931 -2936 0
-2931 -2937 0
-2931 -2938 0
-2931 -2939 0
-2931 -2940 0
-2931 -2941 0
-2931 -2942 0
-2931 -2943 0
-2931 -2944 0
-2932 -2933 0
-2932 -2934 0
-2932 -2935 0
-2932 -2936 0
-2932 -2937 0
-2932 -2938 0
-2932 -2939 0
-2932 -2940 0
-2932 -2941 0
-2932 -2942 0
-2932 -2943 0
-2932 -2944 0
-2933 -2934 0
-2933 -2935 0
-2933 -2936 0
-2933 -2937 0
-2933 -2938 0
-2933 -2939 0
-2933 -2940 0
-2933 -2941 0
-2933 -2942 0
-2933 -2943 0
-2933 -2944 0
-2934 -2935 0
-2934 -2936 0
-2934 -2937 0
-2934 -2938 0
-2934 -2939 0
-2934 -2940 0
-2934 -2941 0
-2934 -2942 0
-2934 -2943 0
-2934 -2944 0
-2935 -2936 0
-2935 -2937 0
-2935 -2938 0
-2935 -2939 0
-2935 -2940 0
-2935 -2941 0
-2935 -2942 0
-2935 -2943 0
-2935 -2944 0
-2936 -2937 0
-2936 -2938 0
-2936 -2939 0
-2936 -2940 0
-2936 -2941 0
-2936 -2942 0
-2936 -2943 0
-2936 -2944 0
-2937 -2938 0
-2937 -2939 0
-2937 -2940 0
-2937 -2941 0
-2937 -2942 0
-2937 -2943 0
-2937 -2944 0
-2938 -2939 0
-2938 -2940 0
-2938 -2941 0
-2938 -2942 0
-2938 -2943 0
-2938 -2944 0
-2939 -2940 0
-2939 -2941 0
-2939 -2942 0
-2939 -2943 0
-2939 -2944 0
-2940 -2941 0
-2940 -2942 0
-2940 -2943 0
-2940 -2944 0
-2941 -2942 0
-2941 -2943 0
-2941 -2944 0
-2942 -2943 0
-2942 -2944 0
-2943 -2944 0
2945 2946 2947 2948 2949 2950 2951 2952 2953 2954 2955 2956 2957 2958 2959 2960 0
-2945 -2946 0
-2945 -2947 0
-2945 -2948 0
-2945 -2949 0
-2945 -2950 0
-2945 -2951 0
-2945 -2952 0
-2945 -2953 0
-2945 -2954 0
-2945 -2955 0
-2945 -2956 0
-2945 -2957 0
-2945 -2958 0
-2945 -2959 0
-2945 -2960 0
-2946 -2947 0
-2946 -2948 0
-2946 -2949 0
-2946 -2950 0
-2946 -2951 0
-2946 -2952 0
-2946 -2953 0
-2946 -2954 0
-2946 -2955 0
-2946 -2956 0
-2946 -2957 0
-2946 -2958 0
-2946 -2959 0
-2946 -2960 0
-2947 -2948 0
-2947 -2949 0
-2947 -2950 0
-2947 -2951 0
-2947 -2952 0
-2947 -2953 0
-2947 -2954 0
-2947 -2955 0
-2947 -2956 0
-2947 -2957 0
-2947 -2958 0
-2947 -2959 0
-2947 -2960 0
-2948 -2949 0
-2948 -2950 0
-2948 -2951 0
-2948 -2952 0
-2948 -2953 0
-2948 -2954 0
-2948 -2955 0
-2948 -2956 0
-2948 -2957 0
-2948 -2958 0
-2948 -2959 0
-2948 -2960 0
-2949 -2950 0
-2949 -2951 0
-2949 -2952 0
-2949 -2953 0
-2949 -2954 0
-2949 -2955 0
-2949 -2956 0
-2949 -2957 0
-2949 -2958 0
-2949 -2959 0
-2949 -2960 0
-2950 -2951 0
-2950 -2952 0
-2950 -2953 0
-2950 -2954 0
-2950 -2955 0
-2950 -2956 0
-2950 -2957 0
-2950 -2958 0
-2950 -2959 0
-2950 -2960 0
-2951 -2952 0
-2951 -2953 0
-2951 -2954 0
-2951 -2955 0
-2951 -2956 0
-2951 -2957 0
-2951 -2958 0
-2951 -2959 0
-2951 -2960 0
-2952 -2953 0
-2952 -2954 0
-2952 -2955 0
-2952 -2956 0
-2952 -2957 0
-2952 -2958 0
-2952 -2959 0
-2952 -2960 0
-2953 -2954 0
-2953 -2955 0
-2953 -2956 0
-2953 -2957 0
-2953 -2958 0
-2953 -2959 0
-2953 -2960 0
-2954 -2955 0
-2954 -2956 0
-2954 -2957 0
-2954 -2958 0
-2954 -2959 0
-2954 -2960 0
-2955 -2956 0
-2955 -2957 0
-2955 -2958 0
-2955 -2959 0
-2955 -2960 0
-2956 -2957 0
-2956 -2958 0
-2956 -2959 0
-2956 -2960 0
-2957 -2958 0
-2957 -2959 0
-2957 -2960 0
-2958 -2959 0
-2958 -2960 0
-2959 -2960 0
2961 2962 2963 2964 2965 2966 2967 2968 2969 2970 2971 2972 2973 2974 2975 2976 0
-2961 -2962 0
-2961 -2963 0
-2961 -2964 0
-2961 -2965 0
-2961 -2966 0
-2961 -2967 0
-2961 -2968 0
-2961 -2969 0
-2961 -2970 0
-2961 -2971 0
-2961 -2972 0
-2961 -2973 0
-2961 -2974 0
-2961 -2975 0
-2961 -2976 0
-2962 -2963 0
-2962 -2964 0
-2962 -2965 0
-2962 -2966 0
-2962 -2967 0
-2962 -2968 0
-2962 -2969 0
-2962 -2970 0
-2962 -2971 0
-2962 -2972 0
-2962 -2973 0
-2962 -2974 0
-2962 -2975 0
-2962 -2976 0
-2963 -2964 0
-2963 -2965 0
-2963 -2966 0
-2963 -2967 0
-2963 -2968 0
-2963 -2969 0
-2963 -2970 0
-2963 -2971 0
-2963 -2972 0
-2963 -2973 0
-2963 -2974 0
-2963 -2975 0
-2963 -2976 0
-2964 -2965 0
-2964 -2966 0
-2964 -2967 0
-2964 -2968 0
-2964 -2969 0
-2964 -2970 0
-2964 -2971 0
-2964 -2972 0
-2964 -2973 0
-2964 -2974 0
-2964 -2975 0
-2964 -2976 0
-2965 -2966 0
-2965 -2967 0
-2965 -2968 0
-2965 -2969 0
-2965 -2970 0
-2965 -2971 0
-2965 -2972 0
-2965 -2973 0
-2965 -2974 0
-2965 -2975 0
-2965 -2976 0
-2966 -2967 0
-2966 -2968 0
-2966 -2969 0
-2966 -2970 0
-2966 -2971 0
-2966 -2972 0
-2966 -2973 0
-2966 -2974 0
-2966 -2975 0
-2966 -2976 0
-2967 -2968 0
-2967 -2969 0
-2967 -2970 0
-2967 -2971 0
-2967 -2972 0
-2967 -2973 0
-2967 -2974 0
-2967 -2975 0
-2967 -2976 0
-2968 -2969 0
-2968 -2970 0
-2968 -2971 0
-2968 -2972 0
-2968 -2973 0
-2968 -2974 0
-2968 -2975 0
-2968 -2976 0
-2969 -2970 0
-2969 -2971 0
-2969 -2972 0
-2969 -2973 0
-2969 -2974 0
-2969 -2975 0
-2969 -2976 0
-2970 -2971 0
-2970 -2972 0
-2970 -2973 0
-2970 -2974 0
-2970 -2975 0
-2970 -2976 0
-2971 -2972 0
-2971 -2973 0
-2971 -2974 0
-2971 -2975 0
-2971 -2976 0
-2972 -2973 0
-2972 -2974 0
-2972 -2975 0
-2972 -2976 0
-2973 -2974 0
-2973 -2975 0
-2973 -2976 0
-2974 -2975 0
-2974 -2976 0
-2975 -2976 0
2977 2978 2979 2980 2981 2982 2983 2984 2985 2986 2987 2988 2989 2990 2991 2992 0
-2977 -2978 0
-2977 -2979 0
-2977 -2980 0
-2977 -2981 0
-2977 -2982 0
-2977 -2983 0
-2977 -2984 0
-2977 -2985 0
-2977 -2986 0
-2977 -2987 0
-2977 -2988 0
-2977 -2989 0
-2977 -2990 0
-2977 -2991 0
-2977 -2992 0
-2978 -2979 0
-2978 -2980 0
-2978 -2981 0
-2978 -2982 0
-2978 -2983 0
-2978 -2984 0
-2978 -2985 0
-2978 -2986 0
-2978 -2987 0
-2978 -2988 0
-2978 -2989 0
-2978 -2990 0
-2978 -2991 0
-2978 -2992 0
-2979 -2980 0
-2979 -2981 0
-2979 -2982 0
-2979 -2983 0
-2979 -2984 0
-2979 -2985 0
-2979 -2986 0
-2979 -2987 0
-2979 -2988 0
-2979 -2989 0
-2979 -2990 0
-2979 -2991 0
-2979 -2992 0
-2980 -2981 0
-2980 -2982 0
-2980 -2983 0
-2980 -2984 0
-2980 -2985 0
-2980 -2986 0
-2980 -2987 0
-2980 -2988 0
-2980 -2989 0
-2980 -2990 0
-2980 -2991 0
-2980 -2992 0
-2981 -2982 0
-2981 -2983 0
-2981 -2984 0
-2981 -2985 0
-2981 -2986 0
-2981 -2987 0
-2981 -2988 0
-2981 -2989 0
-2981 -2990 0
-2981 -2991 0
-2981 -2992 0
-2982 -2983 0
-2982 -2984 0
-2982 -2985 0
-2982 -2986 0
-2982 -2987 0
-2982 -2988 0
-2982 -2989 0
-2982 -2990 0
-2982 -2991 0
-2982 -2992 0
-2983 -2984 0
-2983 -2985 0
-2983 -2986 0
-2983 -2987 0
-2983 -2988 0
-2983 -2989 0
-2983 -2990 0
-2983 -2991 0
-2983 -2992 0
-2984 -2985 0
-2984 -2986 0
-2984 -2987 0
-2984 -2988 0
-2984 -2989 0
-2984 -2990 0
-2984 -2991 0
-2984 -2992 0
-2985 -2986 0
-2985 -2987 0
-2985 -2988 0
-2985 -2989 0
-2985 -2990 0
-2985 -2991 0
-2985 -2992 0
-2986 -2987 0
-2986 -2988 0
-2986 -2989 0
-2986 -2990 0
-2986 -2991 0
-2986 -2992 0
-2987 -2988 0
-2987 -2989 0
-2987 -2990 0
-2987 -2991 0
-2987 -2992 0
-2988 -2989 0
-2988 -2990 0
-2988 -2991 0
-2988 -2992 0
-2989 -2990 0
-2989 -2991 0
-2989 -2992 0
-2990 -2991 0
-2990 -2992 0
-2991 -2992 0
2993 2994 2995 2996 2997 2998 2999 3000 3001 3002 3003 3004 3005 3006 3007 3008 0
-2993 -2994 0
-2993 -2995 0
-2993 -2996 0
-2993 -2997 0
-2993 -2998 0
-2993 -2999 0
-2993 -3000 0
-2993 -3001 0
-2993 -3002 0
-2993 -3003 0
-2993 -3004 0
-2993 -3005 0
-2993 -3006 0
-2993 -3007 0
-2993 -3008 0
-2994 -2995 0
-2994 -2996 0
-2994 -2997 0
-2994 -2998 0
-2994 -2999 0
-2994 -3000 0
-2994 -3001 0
-2994 -3002 0
-2994 -3003 0
-2994 -3004 0
-2994 -3005 0
-2994 -3006 0
-2994 -3007 0
-2994 -3008 0
-2995 -2996 0
-2995 -2997 0
-2995 -2998 0
-2995 -2999 0
-2995 -3000 0
-2995 -3001 0
-2995 -3002 0
-2995 -3003 0
-2995 -3004 0
-2995 -3005 0
-2995 -3006 0
-2995 -3007 0
-2995 -3008 0
-2996 -2997 0
-2996 -2998 0
-2996 -2999 0
-2996 -3000 0
-2996 -3001 0
-2996 -3002 0
-2996 -3003 0
-2996 -3004 0
-2996 -3005 0
-2996 -3006 0
-2996 -3007 0
-2996 -3008 0
-2997 -2998 0
-2997 -2999 0
-2997 -3000 0
-2997 -3001 0
-2997 -3002 0
-2997 -3003 0
-2997 -3004 0
-2997 -3005 0
-2997 -3006 0
-2997 -3007 0
-2997 -3008 0
-2998 -2999 0
-2998 -3000 0
-2998 -3001 0
-2998 -3002 0
-2998 -3003 0
-2998 -3004 0
-2998 -3005 0
-2998 -3006 0
-2998 -3007 0
-2998 -3008 0
-2999 -3000 0
-2999 -3001 0
-2999 -3002 0
-2999 -3003 0
-2999 -3004 0
-2999 -3005 0
-2999 -3006 0
-2999 -3007 0
-2999 -3008 0
-3000 -3001 0
-3000 -3002 0
-3000 -3003 0
-3000 -3004 0
-3000 -3005 0
-3000 -3006 0
-3000 -3007 0
-3000 -3008 0
-3001 -3002 0
-3001 -3003 0
-3001 -3004 0
-3001 -3005 0
-3001 -3006 0
-3001 -3007 0
-3001 -3008 0
-3002 -3003 0
-3002 -3004 0
-3002 -3005 0
-3002 -3006 0
-3002 -3007 0
-3002 -3008 0
-3003 -3004 0
-3003 -3005 0
-3003 -3006 0
-3003 -3007 0
-3003 -3008 0
-3004 -3005 0
-3004 -3006 0
-3004 -3007 0
-3004 -3008 0
-3005 -3006 0
-3005 -3007 0
-3005 -3008 0
-3006 -3007 0
-3006 -3008 0
-3007 -3008 0
3009 3010 3011 3012 3013 3014 3015 3016 3017 3018 3019 3020 3021 3022 3023 3024 0
-3009 -3010 0
-3009 -3011 0
-3009 -3012 0
-3009 -3013 0
-3009 -3014 0
-3009 -3015 0
-3009 -3016 0
-3009 -3017 0
-3009 -3018 0
-3009 -3019 0
-3009 -3020 0
-3009 -3021 0
-3009 -3022 0
-3009 -3023 0
-3009 -3024 0
-3010 -3011 0
-3010 -3012 0
-3010 -3013 0
-3010 -3014 0
-3010 -3015 0
-3010 -3016 0
-3010 -3017 0
-3010 -3018 0
-3010 -3019 0
-3010 -3020 0
-3010 -3021 0
-3010 -3022 0
-3010 -3023 0
-3010 -3024 0
-3011 -3012 0
-3011 -3013 0
-3011 -3014 0
-3011 -3015 0
-3011 -3016 0
-3011 -3017 0
-3011 -3018 0
-3011 -3019 0
-3011 -3020 0
-3011 -3021 0
-3011 -3022 0
-3011 -3023 0
-3011 -3024 0
-3012 -3013 0
-3012 -3014 0
-3012 -3015 0
-3012 -3016 0
-3012 -3017 0
-3012 -3018 0
-3012 -3019 0
-3012 -3020 0
-3012 -3021 0
-3012 -3022 0
-3012 -3023 0
-3012 -3024 0
-3013 -3014 0
-3013 -3015 0
-3013 -3016 0
-3013 -3017 0
-3013 -3018 0
-3013 -3019 0
-3013 -3020 0
-3013 -3021 0
-3013 -3022 0
-3013 -3023 0
-3013 -3024 0
-3014 -3015 0
-3014 -3016 0
-3014 -3017 0
-3014 -3018 0
-3014 -3019 0
-3014 -3020 0
-3014 -3021 0
-3014 -3022 0
-3014 -3023 0
-3014 -3024 0
-3015 -3016 0
-3015 -3017 0
-3015 -3018 0
-3015 -3019 0
-3015 -3020 0
-3015 -3021 0
-3015 -3022 0
-3015 -3023 0
-3015 -3024 0
-3016 -3017 0
-3016 -3018 0
-3016 -3019 0
-3016 -3020 0
-3016 -3021 0
-3016 -3022 0
-3016 -3023 0
-3016 -3024 0
-3017 -3018 0
-3017 -3019 0
-3017 -3020 0
-3017 -3021 0
-3017 -3022 0
-3017 -3023 0
-3017 -3024 0
-3018 -3019 0
-3018 -3020 0
-3018 -3021 0
-3018 -3022 0
-3018 -3023 0
-3018 -3024 0
-3019 -3020 0
-3019 -3021 0
-3019 -3022 0
-3019 -3023 0
-3019 -3024 0
-3020 -3021 0
-3020 -3022 0
-3020 -3023 0
-3020 -3024 0
-3021 -3022 0
-3021 -3023 0
-3021 -3024 0
-3022 -3023 0
-3022 -3024 0
-3023 -3024 0
3025 3026 3027 3028 3029 3030 3031 3032 3033 3034 3035 3036 3037 3038 3039 3040 0
-3025 -3026 0
-3025 -3027 0
-3025 -3028 0
-3025 -3029 0
-3025 -3030 0
-3025 -3031 0
-3025 -3032 0
-3025 -3033 0
-3025 -3034 0
-3025 -3035 0
-3025 -3036 0
-3025 -3037 0
-3025 -3038 0
-3025 -3039 0
-3025 -3040 0
-3026 -3027 0
-3026 -3028 0
-3026 -3029 0
-3026 -3030 0
-3026 -3031 0
-3026 -3032 0
-3026 -3033 0
-3026 -3034 0
-3026 -3035 0
-3026 -3036 0
-3026 -3037 0
-3026 -3038 0
-3026 -3039 0
-3026 -3040 0
-3027 -3028 0
-3027 -3029 0
-3027 -3030 0
-3027 -3031 0
-3027 -3032 0
-3027 -3033 0
-3027 -3034 0
-3027 -3035 0
-3027 -3036 0
-3027 -3037 0
-3027 -3038 0
-3027 -3039 0
-3027 -3040 0
-3028 -3029 0
-3028 -3030 0
-3028 -3031 0
-3028 -3032 0
-3028 -3033 0
-3028 -3034 0
-3028 -3035 0
-3028 -3036 0
-3028 -3037 0
-3028 -3038 0
-3028 -3039 0
-3028 -3040 0
-3029 -3030 0
-3029 -3031 0
-3029 -3032 0
-3029 -3033 0
-3029 -3034 0
-3029 -3035 0
-3029 -3036 0
-3029 -3037 0
-3029 -3038 0
-3029 -3039 0
-3029 -3040 0
-3030 -3031 0
-3030 -3032 0
-3030 -3033 0
-3030 -3034 0
-3030 -3035 0
-3030 -3036 0
-3030 -3037 0
-3030 -3038 0
-3030 -3039 0
-3030 -3040 0
-3031 -3032 0
-3031 -3033 0
-3031 -3034 0
-3031 -3035 0
-3031 -3036 0
-3031 -3037 0
-3031 -3038 0
-3031 -3039 0
-3031 -3040 0
-3032 -3033 0
-3032 -3034 0
-3032 -3035 0
-3032 -3036 0
-3032 -3037 0
-3032 -3038 0
-3032 -3039 0
-3032 -3040 0
-3033 -3034 0
-3033 -3035 0
-3033 -3036 0
-3033 -3037 0
-3033 -3038 0
-3033 -3039 0
-3033 -3040 0
-3034 -3035 0
-3034 -3036 0
-3034 -3037 0
-3034 -3038 0
-3034 -3039 0
-3034 -3040 0
-3035 -3036 0
-3035 -3037 0
-3035 -3038 0
-3035 -3039 0
-3035 -3040 0
-3036 -3037 0
-3036 -3038 0
-3036 -3039 0
-3036 -3040 0
-3037 -3038 0
-3037 -3039 0
-3037 -3040 0
-3038 -3039 0
-3038 -3040 0
-3039 -3040 0
3041 3042 3043 3044 3045 3046 3047 3048 3049 3050 3051 3052 3053 3054 3055 3056 0
-3041 -3042 0
-3041 -3043 0
-3041 -3044 0
-3041 -3045 0
-3041 -3046 0
-3041 -3047 0
-3041 -3048 0
-3041 -3049 0
-3041 -3050 0
-3041 -3051 0
-3041 -3052 0
-3041 -3053 0
-3041 -3054 0
-3041 -3055 0
-3041 -3056 0
-3042 -3043 0
-3042 -3044 0
-3042 -3045 0
-3042 -3046 0
-3042 -3047 0
-3042 -3048 0
-3042 -3049 0
-3042 -3050 0
-3042 -3051 0
-3042 -3052 0
-3042 -3053 0
-3042 -3054 0
-3042 -3055 0
-3042 -3056 0
-3043 -3044 0
-3043 -3045 0
-3043 -3046 0
-3043 -3047 0
-3043 -3048 0
-3043 -3049 0
-3043 -3050 0
-3043 -3051 0
-3043 -3052 0
-3043 -3053 0
-3043 -3054 0
-3043 -3055 0
-3043 -3056 0
-3044 -3045 0
-3044 -3046 0
-3044 -3047 0
-3044 -3048 0
-3044 -3049 0
-3044 -3050 0
-3044 -3051 0
-3044 -3052 0
-3044 -3053 0
-3044 -3054 0
-3044 -3055 0
-3044 -3056 0
-3045 -3046 0
-3045 -3047 0
-3045 -3048 0
-3045 -3049 0
-3045 -3050 0
-3045 -3051 0
-3045 -3052 0
-3045 -3053 0
-3045 -3054 0
-3045 -3055 0
-3045 -3056 0
-3046 -3047 0
-3046 -3048 0
-3046 -3049 0
-3046 -3050 0
-3046 -3051 0
-3046 -3052 0
-3046 -3053 0
-3046 -3054 0
-3046 -3055 0
-3046 -3056 0
-3047 -3048 0
-3047 -3049 0
-3047 -3050 0
-3047 -3051 0
-3047 -3052 0
-3047 -3053 0
-3047 -3054 0
-3047 -3055 0
-3047 -3056 0
-3048 -3049 0
-3048 -3050 0
-3048 -3051 0
-3048 -3052 0
-3048 -3053 0
-3048 -3054 0
-3048 -3055 0
-3048 -3056 0
-3049 -3050 0
-3049 -3051 0
-3049 -3052 0
-3049 -3053 0
-3049 -3054 0
-3049 -3055 0
-3049 -3056 0
-3050 -3051 0
-3050 -3052 0
-3050 -3053 0
-3050 -3054 0
-3050 -3055 0
-3050 -3056 0
-3051 -3052 0
-3051 -3053 0
-3051 -3054 0
-3051 -3055 0
-3051 -3056 0
-3052 -3053 0
-3052 -3054 0
-3052 -3055 0
-3052 -3056 0
-3053 -3054 0
-3053 -3055 0
-3053 -3056 0
-3054 -3055 0
-3054 -3056 0
-3055 -3056 0
3057 3058 3059 3060 3061 3062 3063 3064 3065 3066 3067 3068 3069 3070 3071 3072 0
-3057 -3058 0
-3057 -3059 0
-3057 -3060 0
-3057 -3061 0
-3057 -3062 0
-3057 -3063 0
-3057 -3064 0
-3057 -3065 0
-3057 -3066 0
-3057 -3067 0
-3057 -3068 0
-3057 -3069 0
-3057 -3070 0
-3057 -3071 0
-3057 -3072 0
-3058 -3059 0
-3058 -3060 0
-3058 -3061 0
-3058 -3062 0
-3058 -3063 0
-3058 -3064 0
-3058 -3065 0
-3058 -3066 0
-3058 -3067 0
-3058 -3068 0
-3058 -3069 0
-3058 -3070 0
-3058 -3071 0
-3058 -3072 0
-3059 -3060 0
-3059 -3061 0
-3059 -3062 0
-3059 -3063 0
-3059 -3064 0
-3059 -3065 0
-3059 -3066 0
-3059 -3067 0
-3059 -3068 0
-3059 -3069 0
-3059 -3070 0
-3059 -3071 0
-3059 -3072 0
-3060 -3061 0
-3060 -3062 0
-3060 -3063 0
-3060 -3064 0
-3060 -3065 0
-3060 -3066 0
-3060 -3067 0
-3060 -3068 0
-3060 -3069 0
-3060 -3070 0
-3060 -3071 0
-3060 -3072 0
-3061 -3062 0
-3061 -3063 0
-3061 -3064 0
-3061 -3065 0
-3061 -3066 0
-3061 -3067 0
-3061 -3068 0
-3061 -3069 0
-3061 -3070 0
-3061 -3071 0
-3061 -3072 0
-3062 -3063 0
-3062 -3064 0
-3062 -3065 0
-3062 -3066 0
-3062 -3067 0
-3062 -3068 0
-3062 -3069 0
-3062 -3070 0
-3062 -3071 0
-3062 -3072 0
-3063 -3064 0
-3063 -3065 0
-3063 -3066 0
-3063 -3067 0
-3063 -3068 0
-3063 -3069 0
-3063 -3070 0
-3063 -3071 0
-3063 -3072 0
-3064 -3065 0
-3064 -3066 0
-3064 -3067 0
-3064 -3068 0
-3064 -3069 0
-3064 -3070 0
-3064 -3071 0
-3064 -3072 0
-3065 -3066 0
-3065 -3067 0
-3065 -3068 0
-3065 -3069 0
-3065 -3070 0
-3065 -3071 0
-3065 -3072 0
-3066 -3067 0
-3066 -3068 0
-3066 -3069 0
-3066 -3070 0
-3066 -3071 0
-3066 -3072 0
-3067 -3068 0
-3067 -3069 0
-3067 -3070 0
-3067 -3071 0
-3067 -3072 0
-3068 -3069 0
-3068 -3070 0
-3068 -3071 0
-3068 -3072 0
-3069 -3070 0
-3069 -3071 0
-3069 -3072 0
-3070 -3071 0
-3070 -3072 0
-3071 -3072 0
3073 3074 3075 3076 3077 3078 3079 3080 3081 3082 3083 3084 3085 3086 3087 3088 0
-3073 -3074 0
-3073 -3075 0
-3073 -3076 0
-3073 -3077 0
-3073 -3078 0
-3073 -3079 0
-3073 -3080 0
-3073 -3081 0
-3073 -3082 0
-3073 -3083 0
-3073 -3084 0
-3073 -3085 0
-3073 -3086 0
-3073 -3087 0
-3073 -3088 0
-3074 -3075 0
-3074 -3076 0
-3074 -3077 0
-3074 -3078 0
-3074 -3079 0
-3074 -3080 0
-3074 -3081 0
-3074 -3082 0
-3074 -3083 0
-3074 -3084 0
-3074 -3085 0
-3074 -3086 0
-3074 -3087 0
-3074 -3088 0
-3075 -3076 0
-3075 -3077 0
-3075 -3078 0
-3075 -3079 0
-3075 -3080 0
-3075 -3081 0
-3075 -3082 0
-3075 -3083 0
-3075 -3084 0
-3075 -3085 0
-3075 -3086 0
-3075 -3087 0
-3075 -3088 0
-3076 -3077 0
-3076 -3078 0
-3076 -3079 0
-3076 -3080 0
-3076 -3081 0
-3076 -3082 0
-3076 -3083 0
-3076 -3084 0
-3076 -3085 0
-3076 -3086 0
-3076 -3087 0
-3076 -3088 0
-3077 -3078 0
-3077 -3079 0
-3077 -3080 0
-3077 -3081 0
-3077 -3082 0
-3077 -3083 0
-3077 -3084 0
-3077 -3085 0
-3077 -3086 0
-3077 -3087 0
-3077 -3088 0
-3078 -3079 0
-3078 -3080 0
-3078 -3081 0
-3078 -3082 0
-3078 -3083 0
-3078 -3084 0
-3078 -3085 0
-3078 -3086 0
-3078 -3087 0
-3078 -3088 0
-3079 -3080 0
-3079 -3081 0
-3079 -3082 0
-3079 -3083 0
-3079 -3084 0
-3079 -3085 0
-3079 -3086 0
-3079 -3087 0
-3079 -3088 0
-3080 -3081 0
-3080 -3082 0
-3080 -3083 0
-3080 -3084 0
-3080 -3085 0
-3080 -3086 0
-3080 -3087 0
-3080 -3088 0
-3081 -3082 0
-3081 -3083 0
-3081 -3084 0
-3081 -3085 0
-3081 -3086 0
-3081 -3087 0
-3081 -3088 0
-3082 -3083 0
-3082 -3084 0
-3082 -3085 0
-3082 -3086 0
-3082 -3087 0
-3082 -3088 0
-3083 -3084 0
-3083 -3085 0
-3083 -3086 0
-3083 -3087 0
-3083 -3088 0
-3084 -3085 0
-3084 -3086 0
-3084 -3087 0
-3084 -3088 0
-3085 -3086 0
-3085 -3087 0
-3085 -3088 0
-3086 -3087 0
-3086 -3088 0
-3087 -3088 0
3089 3090 3091 3092 3093 3094 3095 3096 3097 3098 3099 3100 3101 3102 3103 3104 0
-3089 -3090 0
-3089 -3091 0
-3089 -3092 0
-3089 -3093 0
-3089 -3094 0
-3089 -3095 0
-3089 -3096 0
-3089 -3097 0
-3089 -3098 0
-3089 -3099 0
-3089 -3100 0
-3089 -3101 0
-3089 -3102 0
-3089 -3103 0
-3089 -3104 0
-3090 -3091 0
-3090 -3092 0
-3090 -3093 0
-3090 -3094 0
-3090 -3095 0
-3090 -3096 0
-3090 -3097 0
-3090 -3098 0
-3090 -3099 0
-3090 -3100 0
-3090 -3101 0
-3090 -3102 0
-3090 -3103 0
-3090 -3104 0
-3091 -3092 0
-3091 -3093 0
-3091 -3094 0
-3091 -3095 0
-3091 -3096 0
-3091 -3097 0
-3091 -3098 0
-3091 -3099 0
-3091 -3100 0
-3091 -3101 0
-3091 -3102 0
-3091 -3103 0
-3091 -3104 0
-3092 -3093 0
-3092 -3094 0
-3092 -3095 0
-3092 -3096 0
-3092 -3097 0
-3092 -3098 0
-3092 -3099 0
-3092 -3100 0
-3092 -3101 0
-3092 -3102 0
-3092 -3103 0
-3092 -3104 0
-3093 -3094 0
-3093 -3095 0
-3093 -3096 0
-3093 -3097 0
-3093 -3098 0
-3093 -3099 0
-3093 -3100 0
-3093 -3101 0
-3093 -3102 0
-3093 -3103 0
-3093 -3104 0
-3094 -3095 0
-3094 -3096 0
-3094 -3097 0
-3094 -3098 0
-3094 -3099 0
-3094 -3100 0
-3094 -3101 0
-3094 -3102 0
-3094 -3103 0
-3094 -3104 0
-3095 -3096 0
-3095 -3097 0
-3095 -3098 0
-3095 -3099 0
-3095 -3100 0
-3095 -3101 0
-3095 -3102 0
-3095 -3103 0
-3095 -3104 0
-3096 -3097 0
-3096 -3098 0
-3096 -3099 0
-3096 -3100 0
-3096 -3101 0
-3096 -3102 0
-3096 -3103 0
-3096 -3104 0
-3097 -3098 0
-3097 -3099 0
-3097 -3100 0
-3097 -3101 0
-3097 -3102 0
-3097 -3103 0
-3097 -3104 0
-3098 -3099 0
-3098 -3100 0
-3098 -3101 0
-3098 -3102 0
-3098 -3103 0
-3098 -3104 0
-3099 -3100 0
-3099 -3101 0
-3099 -3102 0
-3099 -3103 0
-3099 -3104 0
-3100 -3101 0
-3100 -3102 0
-3100 -3103 0
-3100 -3104 0
-3101 -3102 0
-3101 -3103 0
-3101 -3104 0
-3102 -3103 0
-3102 -3104 0
-3103 -3104 0
3105 3106 3107 3108 3109 3110 3111 3112 3113 3114 3115 3116 3117 3118 3119 3120 0
-3105 -3106 0
-3105 -3107 0
-3105 -3108 0
-3105 -3109 0
-3105 -3110 0
-3105 -3111 0
-3105 -3112 0
-3105 -3113 0
-3105 -3114 0
-3105 -3115 0
-3105 -3116 0
-3105 -3117 0
-3105 -3118 0
-3105 -3119 0
-3105 -3120 0
-3106 -3107 0
-3106 -3108 0
-3106 -3109 0
-3106 -3110 0
-3106 -3111 0
-3106 -3112 0
-3106 -3113 0
-3106 -3114 0
-3106 -3115 0
-3106 -3116 0
-3106 -3117 0
-3106 -3118 0
-3106 -3119 0
-3106 -3120 0
-3107 -3108 0
-3107 -3109 0
-3107 -3110 0
-3107 -3111 0
-3107 -3112 0
-3107 -3113 0
-3107 -3114 0
-3107 -3115 0
-3107 -3116 0
-3107 -3117 0
-3107 -3118 0
-3107 -3119 0
-3107 -3120 0
-3108 -3109 0
-3108 -3110 0
-3108 -3111 0
-3108 -3112 0
-3108 -3113 0
-3108 -3114 0
-3108 -3115 0
-3108 -3116 0
-3108 -3117 0
-3108 -3118 0
-3108 -3119 0
-3108 -3120 0
-3109 -3110 0
-3109 -3111 0
-3109 -3112 0
-3109 -3113 0
-3109 -3114 0
-3109 -3115 0
-3109 -3116 0
-3109 -3117 0
-3109 -3118 0
-3109 -3119 0
-3109 -3120 0
-3110 -3111 0
-3110 -3112 0
-3110 -3113 0
-3110 -3114 0
-3110 -3115 0
-3110 -3116 0
-3110 -3117 0
-3110 -3118 0
-3110 -3119 0
-3110 -3120 0
-3111 -3112 0
-3111 -3113 0
-3111 -3114 0
-3111 -3115 0
-3111 -3116 0
-3111 -3117 0
-3111 -3118 0
-3111 -3119 0
-3111 -3120 0
-3112 -3113 0
-3112 -3114 0
-3112 -3115 0
-3112 -3116 0
-3112 -3117 0
-3112 -3118 0
-3112 -3119 0
-3112 -3120 0
-3113 -3114 0
-3113 -3115 0
-3113 -3116 0
-3113 -3117 0
-3113 -3118 0
-3113 -3119 0
-3113 -3120 0
-3114 -3115 0
-3114 -3116 0
-3114 -3117 0
-3114 -3118 0
-3114 -3119 0
-3114 -3120 0
-3115 -3116 0
-3115 -3117 0
-3115 -3118 0
-3115 -3119 0
-3115 -3120 0
-3116 -3117 0
-3116 -3118 0
-3116 -3119 0
-3116 -3120 0
-3117 -3118 0
-3117 -3119 0
-3117 -3120 0
-3118 -3119 0
-3118 -3120 0
-3119 -3120 0
3121 3122 3123 3124 3125 3126 3127 3128 3129 3130 3131 3132 3133 3134 3135 3136 0
-3121 -3122 0
-3121 -3123 0
-3121 -3124 0
-3121 -3125 0
-3121 -3126 0
-3121 -3127 0
-3121 -3128 0
-3121 -3129 0
-3121 -3130 0
-3121 -3131 0
-3121 -3132 0
-3121 -3133 0
-3121 -3134 0
-3121 -3135 0
-3121 -3136 0
-3122 -3123 0
-3122 -3124 0
-3122 -3125 0
-3122 -3126 0
-3122 -3127 0
-3122 -3128 0
-3122 -3129 0
-3122 -3130 0
-3122 -3131 0
-3122 -3132 0
-3122 -3133 0
-3122 -3134 0
-3122 -3135 0
-3122 -3136 0
-3123 -3124 0
-3123 -3125 0
-3123 -3126 0
-3123 -3127 0
-3123 -3128 0
-3123 -3129 0
-3123 -3130 0
-3123 -3131 0
-3123 -3132 0
-3123 -3133 0
-3123 -3134 0
-3123 -3135 0
-3123 -3136 0
-3124 -3125 0
-3124 -3126 0
-3124 -3127 0
-3124 -3128 0
-3124 -3129 0
-3124 -3130 0
-3124 -3131 0
-3124 -3132 0
-3124 -3133 0
-3124 -3134 0
-3124 -3135 0
-3124 -3136 0
-3125 -3126 0
-3125 -3127 0
-3125 -3128 0
-3125 -3129 0
-3125 -3130 0
-3125 -3131 0
-3125 -3132 0
-3125 -3133 0
-3125 -3134 0
-3125 -3135 0
-3125 -3136 0
-3126 -3127 0
-3126 -3128 0
-3126 -3129 0
-3126 -3130 0
-3126 -3131 0
-3126 -3132 0
-3126 -3133 0
-3126 -3134 0
-3126 -3135 0
-3126 -3136 0
-3127 -3128 0
-3127 -3129 0
-3127 -3130 0
-3127 -3131 0
-3127 -3132 0
-3127 -3133 0
-3127 -3134 0
-3127 -3135 0
-3127 -3136 0
-3128 -3129 0
-3128 -3130 0
-3128 -3131 0
-3128 -3132 0
-3128 -3133 0
-3128 -3134 0
-3128 -3135 0
-3128 -3136 0
-3129 -3130 0
-3129 -3131 0
-3129 -3132 0
-3129 -3133 0
-3129 -3134 0
-3129 -3135 0
-3129 -3136 0
-3130 -3131 0
-3130 -3132 0
-3130 -3133 0
-3130 -3134 0
-3130 -3135 0
-3130 -3136 0
-3131 -3132 0
-3131 -3133 0
-3131 -3134 0
-3131 -3135 0
-3131 -3136 0
-3132 -3133 0
-3132 -3134 0
-3132 -3135 0
-3132 -3136 0
-3133 -3134 0
-3133 -3135 0
-3133 -3136 0
-3134 -3135 0
-3134 -3136 0
-3135 -3136 0
3137 3138 3139 3140 3141 3142 3143 3144 3145 3146 3147 3148 3149 3150 3151 3152 0
-3137 -3138 0
-3137 -3139 0
-3137 -3140 0
-3137 -3141 0
-3137 -3142 0
-3137 -3143 0
-3137 -3144 0
-3137 -3145 0
-3137 -3146 0
-3137 -3147 0
-3137 -3148 0
-3137 -3149 0
-3137 -3150 0
-3137 -3151 0
-3137 -3152 0
-3138 -3139 0
-3138 -3140 0
-3138 -3141 0
-3138 -3142 0
-3138 -3143 0
-3138 -3144 0
-3138 -3145 0
-3138 -3146 0
-3138 -3147 0
-3138 -3148 0
-3138 -3149 0
-3138 -3150 0
-3138 -3151 0
-3138 -3152 0
-3139 -3140 0
-3139 -3141 0
-3139 -3142 0
-3139 -3143 0
-3139 -3144 0
-3139 -3145 0
-3139 -3146 0
-3139 -3147 0
-3139 -3148 0
-3139 -3149 0
-3139 -3150 0
-3139 -3151 0
-3139 -3152 0
-3140 -3141 0
-3140 -3142 0
-3140 -3143 0
-3140 -3144 0
-3140 -3145 0
-3140 -3146 0
-3140 -3147 0
-3140 -3148 0
-3140 -3149 0
-3140 -3150 0
-3140 -3151 0
-3140 -3152 0
-3141 -3142 0
-3141 -3143 0
-3141 -3144 0
-3141 -3145 0
-3141 -3146 0
-3141 -3147 0
-3141 -3148 0
-3141 -3149 0
-3141 -3150 0
-3141 -3151 0
-3141 -3152 0
-3142 -3143 0
-3142 -3144 0
-3142 -3145 0
-3142 -3146 0
-3142 -3147 0
-3142 -3148 0
-3142 -3149 0
-3142 -3150 0
-3142 -3151 0
-3142 -3152 0
-3143 -3144 0
-3143 -3145 0
-3143 -3146 0
-3143 -3147 0
-3143 -3148 0
-3143 -3149 0
-3143 -3150 0
-3143 -3151 0
-3143 -3152 0
-3144 -3145 0
-3144 -3146 0
-3144 -3147 0
-3144 -3148 0
-3144 -3149 0
-3144 -3150 0
-3144 -3151 0
-3144 -3152 0
-3145 -3146 0
-3145 -3147 0
-3145 -3148 0
-3145 -3149 0
-3145 -3150 0
-3145 -3151 0
-3145 -3152 0
-3146 -3147 0
-3146 -3148 0
-3146 -3149 0
-3146 -3150 0
-3146 -3151 0
-3146 -3152 0
-3147 -3148 0
-3147 -3149 0
-3147 -3150 0
-3147 -3151 0
-3147 -3152 0
-3148 -3149 0
-3148 -3150 0
-3148 -3151 0
-3148 -3152 0
-3149 -3150 0
-3149 -3151 0
-3149 -3152 0
-3150 -3151 0
-3150 -3152 0
-3151 -3152 0
3153 3154 3155 3156 3157 3158 3159 3160 3161 3162 3163 3164 3165 3166 3167 3168 0
-3153 -3154 0
-3153 -3155 0
-3153 -3156 0
-3153 -3157 0
-3153 -3158 0
-3153 -3159 0
-3153 -3160 0
-3153 -3161 0
-3153 -3162 0
-3153 -3163 0
-3153 -3164 0
-3153 -3165 0
-3153 -3166 0
-3153 -3167 0
-3153 -3168 0
-3154 -3155 0
-3154 -3156 0
-3154 -3157 0
-3154 -3158 0
-3154 -3159 0
-3154 -3160 0
-3154 -3161 0
-3154 -3162 0
-3154 -3163 0
-3154 -3164 0
-3154 -3165 0
-3154 -3166 0
-3154 -3167 0
-3154 -3168 0
-3155 -3156 0
-3155 -3157 0
-3155 -3158 0
-3155 -3159 0
-3155 -3160 0
-3155 -3161 0
-3155 -3162 0
-3155 -3163 0
-3155 -3164 0
-3155 -3165 0
-3155 -3166 0
-3155 -3167 0
-3155 -3168 0
-3156 -3157 0
-3156 -3158 0
-3156 -3159 0
-3156 -3160 0
-3156 -3161 0
-3156 -3162 0
-3156 -3163 0
-3156 -3164 0
-3156 -3165 0
-3156 -3166 0
-3156 -3167 0
-3156 -3168 0
-3157 -3158 0
-3157 -3159 0
-3157 -3160 0
-3157 -3161 0
-3157 -3162 0
-3157 -3163 0
-3157 -3164 0
-3157 -3165 0
-3157 -3166 0
-3157 -3167 0
-3157 -3168 0
-3158 -3159 0
-3158 -3160 0
-3158 -3161 0
-3158 -3162 0
-3158 -3163 0
-3158 -3164 0
-3158 -3165 0
-3158 -3166 0
-3158 -3167 0
-3158 -3168 0
-3159 -3160 0
-3159 -3161 0
-3159 -3162 0
-3159 -3163 0
-3159 -3164 0
-3159 -3165 0
-3159 -3166 0
-3159 -3167 0
-3159 -3168 0
-3160 -3161 0
-3160 -3162 0
-3160 -3163 0
-3160 -3164 0
-3160 -3165 0
-3160 -3166 0
-3160 -3167 0
-3160 -3168 0
-3161 -3162 0
-3161 -3163 0
-3161 -3164 0
-3161 -3165 0
-3161 -3166 0
-3161 -3167 0
-3161 -3168 0
-3162 -3163 0
-3162 -3164 0
-3162 -3165 0
-3162 -3166 0
-3162 -3167 0
-3162 -3168 0
-3163 -3164 0
-3163 -3165 0
-3163 -3166 0
-3163 -3167 0
-3163 -3168 0
-3164 -3165 0
-3164 -3166 0
-3164 -3167 0
-3164 -3168 0
-3165 -3166 0
-3165 -3167 0
-3165 -3168 0
-3166 -3167 0
-3166 -3168 0
-3167 -3168 0
3169 3170 3171 3172 3173 3174 3175 3176 3177 3178 3179 3180 3181 3182 3183 3184 0
-3169 -3170 0
-3169 -3171 0
-3169 -3172 0
-3169 -3173 0
-3169 -3174 0
-3169 -3175 0
-3169 -3176 0
-3169 -3177 0
-3169 -3178 0
-3169 -3179 0
-3169 -3180 0
-3169 -3181 0
-3169 -3182 0
-3169 -3183 0
-3169 -3184 0
-3170 -3171 0
-3170 -3172 0
-3170 -3173 0
-3170 -3174 0
-3170 -3175 0
-3170 -3176 0
-3170 -3177 0
-3170 -3178 0
-3170 -3179 0
-3170 -3180 0
-3170 -3181 0
-3170 -3182 0
-3170 -3183 0
-3170 -3184 0
-3171 -3172 0
-3171 -3173 0
-3171 -3174 0
-3171 -3175 0
-3171 -3176 0
-3171 -3177 0
-3171 -3178 0
-3171 -3179 0
-3171 -3180 0
-3171 -3181 0
-3171 -3182 0
-3171 -3183 0
-3171 -3184 0
-3172 -3173 0
-3172 -3174 0
-3172 -3175 0
-3172 -3176 0
-3172 -3177 0
-3172 -3178 0
-3172 -3179 0
-3172 -3180 0
-3172 -3181 0
-3172 -3182 0
-3172 -3183 0
-3172 -3184 0
-3173 -3174 0
-3173 -3175 0
-3173 -3176 0
-3173 -3177 0
-3173 -3178 0
-3173 -3179 0
-3173 -3180 0
-3173 -3181 0
-3173 -3182 0
-3173 -3183 0
-3173 -3184 0
-3174 -3175 0
-3174 -3176 0
-3174 -3177 0
-3174 -3178 0
-3174 -3179 0
-3174 -3180 0
-3174 -3181 0
-3174 -3182 0
-3174 -3183 0
-3174 -3184 0
-3175 -3176 0
-3175 -3177 0
-3175 -3178 0
-3175 -3179 0
-3175 -3180 0
-3175 -3181 0
-3175 -3182 0
-3175 -3183 0
-3175 -3184 0
-3176 -3177 0
-3176 -3178 0
-3176 -3179 0
-3176 -3180 0
-3176 -3181 0
-3176 -3182 0
-3176 -3183 0
-3176 -3184 0
-3177 -3178 0
-3177 -3179 0
-3177 -3180 0
-3177 -3181 0
-3177 -3182 0
-3177 -3183 0
-3177 -3184 0
-3178 -3179 0
-3178 -3180 0
-3178 -3181 0
-3178 -3182 0
-3178 -3183 0
-3178 -3184 0
-3179 -3180 0
-3179 -3181 0
-3179 -3182 0
-3179 -3183 0
-3179 -3184 0
-3180 -3181 0
-3180 -3182 0
-3180 -3183 0
-3180 -3184 0
-3181 -3182 0
-3181 -3183 0
-3181 -3184 0
-3182 -3183 0
-3182 -3184 0
-3183 -3184 0
3185 3186 3187 3188 3189 3190 3191 3192 3193 3194 3195 3196 3197 3198 3199 3200 0
-3185 -3186 0
-3185 -3187 0
-3185 -3188 0
-3185 -3189 0
-3185 -3190 0
-3185 -3191 0
-3185 -3192 0
-3185 -3193 0
-3185 -3194 0
-3185 -3195 0
-3185 -3196 0
-3185 -3197 0
-3185 -3198 0
-3185 -3199 0
-3185 -3200 0
-3186 -3187 0
-3186 -3188 0
-3186 -3189 0
-3186 -3190 0
-3186 -3191 0
-3186 -3192 0
-3186 -3193 0
-3186 -3194 0
-3186 -3195 0
-3186 -3196 0
-3186 -3197 0
-3186 -3198 0
-3186 -3199 0
-3186 -3200 0
-3187 -3188 0
-3187 -3189 0
-3187 -3190 0
-3187 -3191 0
-3187 -3192 0
-3187 -3193 0
-3187 -3194 0
-3187 -3195 0
-3187 -3196 0
-3187 -3197 0
-3187 -3198 0
-3187 -3199 0
-3187 -3200 0
-3188 -3189 0
-3188 -3190 0
-3188 -3191 0
-3188 -3192 0
-3188 -3193 0
-3188 -3194 0
-3188 -3195 0
-3188 -3196 0
-3188 -3197 0
-3188 -3198 0
-3188 -3199 0
-3188 -3200 0
-3189 -3190 0
-3189 -3191 0
-3189 -3192 0
-3189 -3193 0
-3189 -3194 0
-3189 -3195 0
-3189 -3196 0
-3189 -3197 0
-3189 -3198 0
-3189 -3199 0
-3189 -3200 0
-3190 -3191 0
-3190 -3192 0
-3190 -3193 0
-3190 -3194 0
-3190 -3195 0
-3190 -3196 0
-3190 -3197 0
-3190 -3198 0
-3190 -3199 0
-3190 -3200 0
-3191 -3192 0
-3191 -3193 0
-3191 -3194 0
-3191 -3195 0
-3191 -3196 0
-3191 -3197 0
-3191 -3198 0
-3191 -3199 0
-3191 -3200 0
-3192 -3193 0
-3192 -3194 0
-3192 -3195 0
-3192 -3196 0
-3192 -3197 0
-3192 -3198 0
-3192 -3199 0
-3192 -3200 0
-3193 -3194 0
-3193 -3195 0
-3193 -3196 0
-3193 -3197 0
-3193 -3198 0
-3193 -3199 0
-3193 -3200 0
-3194 -3195 0
-3194 -3196 0
-3194 -3197 0
-3194 -3198 0
-3194 -3199 0
-3194 -3200 0
-3195 -3196 0
-3195 -3197 0
-3195 -3198 0
-3195 -3199 0
-3195 -3200 0
-3196 -3197 0
-3196 -3198 0
-3196 -3199 0
-3196 -3200 0
-3197 -3198 0
-3197 -3199 0
-3197 -3200 0
-3198 -3199 0
-3198 -3200 0
-3199 -3200 0
3201 3202 3203 3204 3205 3206 3207 3208 3209 3210 3211 3212 3213 3214 3215 3216 0
-3201 -3202 0
-3201 -3203 0
-3201 -3204 0
-3201 -3205 0
-3201 -3206 0
-3201 -3207 0
-3201 -3208 0
-3201 -3209 0
-3201 -3210 0
-3201 -3211 0
-3201 -3212 0
-3201 -3213 0
-3201 -3214 0
-3201 -3215 0
-3201 -3216 0
-3202 -3203 0
-3202 -3204 0
-3202 -3205 0
-3202 -3206 0
-3202 -3207 0
-3202 -3208 0
-3202 -3209 0
-3202 -3210 0
-3202 -3211 0
-3202 -3212 0
-3202 -3213 0
-3202 -3214 0
-3202 -3215 0
-3202 -3216 0
-3203 -3204 0
-3203 -3205 0
-3203 -3206 0
-3203 -3207 0
-3203 -3208 0
-3203 -3209 0
-3203 -3210 0
-3203 -3211 0
-3203 -3212 0
-3203 -3213 0
-3203 -3214 0
-3203 -3215 0
-3203 -3216 0
-3204 -3205 0
-3204 -3206 0
-3204 -3207 0
-3204 -3208 0
-3204 -3209 0
-3204 -3210 0
-3204 -3211 0
-3204 -3212 0
-3204 -3213 0
-3204 -3214 0
-3204 -3215 0
-3204 -3216 0
-3205 -3206 0
-3205 -3207 0
-3205 -3208 0
-3205 -3209 0
-3205 -3210 0
-3205 -3211 0
-3205 -3212 0
-3205 -3213 0
-3205 -3214 0
-3205 -3215 0
-3205 -3216 0
-3206 -3207 0
-3206 -3208 0
-3206 -3209 0
-3206 -3210 0
-3206 -3211 0
-3206 -3212 0
-3206 -3213 0
-3206 -3214 0
-3206 -3215 0
-3206 -3216 0
-3207 -3208 0
-3207 -3209 0
-3207 -3210 0
-3207 -3211 0
-3207 -3212 0
-3207 -3213 0
-3207 -3214 0
-3207 -3215 0
-3207 -3216 0
-3208 -3209 0
-3208 -3210 0
-3208 -3211 0
-3208 -3212 0
-3208 -3213 0
-3208 -3214 0
-3208 -3215 0
-3208 -3216 0
-3209 -3210 0
-3209 -3211 0
-3209 -3212 0
-3209 -3213 0
-3209 -3214 0
-3209 -3215 0
-3209 -3216 0
-3210 -3211 0
-3210 -3212 0
-3210 -3213 0
-3210 -3214 0
-3210 -3215 0
-3210 -3216 0
-3211 -3212 0
-3211 -3213 0
-3211 -3214 0
-3211 -3215 0
-3211 -3216 0
-3212 -3213 0
-3212 -3214 0
-3212 -3215 0
-3212 -3216 0
-3213 -3214 0
-3213 -3215 0
-3213 -3216 0
-3214 -3215 0
-3214 -3216 0
-3215 -3216 0
3217 3218 3219 3220 3221 3222 3223 3224 3225 3226 3227 3228 3229 3230 3231 3232 0
-3217 -3218 0
-3217 -3219 0
-3217 -3220 0
-3217 -3221 0
-3217 -3222 0
-3217 -3223 0
-3217 -3224 0
-3217 -3225 0
-3217 -3226 0
-3217 -3227 0
-3217 -3228 0
-3217 -3229 0
-3217 -3230 0
-3217 -3231 0
-3217 -3232 0
-3218 -3219 0
-3218 -3220 0
-3218 -3221 0
-3218 -3222 0
-3218 -3223 0
-3218 -3224 0
-3218 -3225 0
-3218 -3226 0
-3218 -3227 0
-3218 -3228 0
-3218 -3229 0
-3218 -3230 0
-3218 -3231 0
-3218 -3232 0
-3219 -3220 0
-3219 -3221 0
-3219 -3222 0
-3219 -3223 0
-3219 -3224 0
-3219 -3225 0
-3219 -3226 0
-3219 -3227 0
-3219 -3228 0
-3219 -3229 0
-3219 -3230 0
-3219 -3231 0
-3219 -3232 0
-3220 -3221 0
-3220 -3222 0
-3220 -3223 0
-3220 -3224 0
-3220 -3225 0
-3220 -3226 0
-3220 -3227 0
-3220 -3228 0
-3220 -3229 0
-3220 -3230 0
-3220 -3231 0
-3220 -3232 0
-3221 -3222 0
-3221 -3223 0
-3221 -3224 0
-3221 -3225 0
-3221 -3226 0
-3221 -3227 0
-3221 -3228 0
-3221 -3229 0
-3221 -3230 0
-3221 -3231 0
-3221 -3232 0
-3222 -3223 0
-3222 -3224 0
-3222 -3225 0
-3222 -3226 0
-3222 -3227 0
-3222 -3228 0
-3222 -3229 0
-3222 -3230 0
-3222 -3231 0
-3222 -3232 0
-3223 -3224 0
-3223 -3225 0
-3223 -3226 0
-3223 -3227 0
-3223 -3228 0
-3223 -3229 0
-3223 -3230 0
-3223 -3231 0
-3223 -3232 0
-3224 -3225 0
-3224 -3226 0
-3224 -3227 0
-3224 -3228 0
-3224 -3229 0
-3224 -3230 0
-3224 -3231 0
-3224 -3232 0
-3225 -3226 0
-3225 -3227 0
-3225 -3228 0
-3225 -3229 0
-3225 -3230 0
-3225 -3231 0
-3225 -3232 0
-3226 -3227 0
-3226 -3228 0
-3226 -3229 0
-3226 -3230 0
-3226 -3231 0
-3226 -3232 0
-3227 -3228 0
-3227 -3229 0
-3227 -3230 0
-3227 -3231 0
-3227 -3232 0
-3228 -3229 0
-3228 -3230 0
-3228 -3231 0
-3228 -3232 0
-3229 -3230 0
-3229 -3231 0
-3229 -3232 0
-3230 -3231 0
-3230 -3232 0
-3231 -3232 0
3233 3234 3235 3236 3237 3238 3239 3240 3241 3242 3243 3244 3245 3246 3247 3248 0
-3233 -3234 0
-3233 -3235 0
-3233 -3236 0
-3233 -3237 0
-3233 -3238 0
-3233 -3239 0
-3233 -3240 0
-3233 -3241 0
-3233 -3242 0
-3233 -3243 0
-3233 -3244 0
-3233 -3245 0
-3233 -3246 0
-3233 -3247 0
-3233 -3248 0
-3234 -3235 0
-3234 -3236 0
-3234 -3237 0
-3234 -3238 0
-3234 -3239 0
-3234 -3240 0
-3234 -3241 0
-3234 -3242 0
-3234 -3243 0
-3234 -3244 0
-3234 -3245 0
-3234 -3246 0
-3234 -3247 0
-3234 -3248 0
-3235 -3236 0
-3235 -3237 0
-3235 -3238 0
-3235 -3239 0
-3235 -3240 0
-3235 -3241 0
-3235 -3242 0
-3235 -3243 0
-3235 -3244 0
-3235 -3245 0
-3235 -3246 0
-3235 -3247 0
-3235 -3248 0
-3236 -3237 0
-3236 -3238 0
-3236 -3239 0
-3236 -3240 0
-3236 -3241 0
-3236 -3242 0
-3236 -3243 0
-3236 -3244 0
-3236 -3245 0
-3236 -3246 0
-3236 -3247 0
-3236 -3248 0
-3237 -3238 0
-3237 -3239 0
-3237 -3240 0
-3237 -3241 0
-3237 -3242 0
-3237 -3243 0
-3237 -3244 0
-3237 -3245 0
-3237 -3246 0
-3237 -3247 0
-3237 -3248 0
-3238 -3239 0
-3238 -3240 0
-3238 -3241 0
-3238 -3242 0
-3238 -3243 0
-3238 -3244 0
-3238 -3245 0
-3238 -3246 0
-3238 -3247 0
-3238 -3248 0
-3239 -3240 0
-3239 -3241 0
-3239 -3242 0
-3239 -3243 0
-3239 -3244 0
-3239 -3245 0
-3239 -3246 0
-3239 -3247 0
-3239 -3248 0
-3240 -3241 0
-3240 -3242 0
-3240 -3243 0
-3240 -3244 0
-3240 -3245 0
-3240 -3246 0
-3240 -3247 0
-3240 -3248 0
-3241 -3242 0
-3241 -3243 0
-3241 -3244 0
-3241 -3245 0
-3241 -3246 0
-3241 -3247 0
-3241 -3248 0
-3242 -3243 0
-3242 -3244 0
-3242 -3245 0
-3242 -3246 0
-3242 -3247 0
-3242 -3248 0
-3243 -3244 0
-3243 -3245 0
-3243 -3246 0
-3243 -3247 0
-3243 -3248 0
-3244 -3245 0
-3244 -3246 0
-3244 -3247 0
-3244 -3248 0
-3245 -3246 0
-3245 -3247 0
-3245 -3248 0
-3246 -3247 0
-3246 -3248 0
-3247 -3248 0
3249 3250 3251 3252 3253 3254 3255 3256 3257 3258 3259 3260 3261 3262 3263 3264 0
-3249 -3250 0
-3249 -3251 0
-3249 -3252 0
-3249 -3253 0
-3249 -3254 0
-3249 -3255 0
-3249 -3256 0
-3249 -3257 0
-3249 -3258 0
-3249 -3259 0
-3249 -3260 0
-3249 -3261 0
-3249 -3262 0
-3249 -3263 0
-3249 -3264 0
-3250 -3251 0
-3250 -3252 0
-3250 -3253 0
-3250 -3254 0
-3250 -3255 0
-3250 -3256 0
-3250 -3257 0
-3250 -3258 0
-3250 -3259 0
-3250 -3260 0
-3250 -3261 0
-3250 -3262 0
-3250 -3263 0
-3250 -3264 0
-3251 -3252 0
-3251 -3253 0
-3251 -3254 0
-3251 -3255 0
-3251 -3256 0
-3251 -3257 0
-3251 -3258 0
-3251 -3259 0
-3251 -3260 0
-3251 -3261 0
-3251 -3262 0
-3251 -3263 0
-3251 -3264 0
-3252 -3253 0
-3252 -3254 0
-3252 -3255 0
-3252 -3256 0
-3252 -3257 0
-3252 -3258 0
-3252 -3259 0
-3252 -3260 0
-3252 -3261 0
-3252 -3262 0
-3252 -3263 0
-3252 -3264 0
-3253 -3254 0
-3253 -3255 0
-3253 -3256 0
-3253 -3257 0
-3253 -3258 0
-3253 -3259 0
-3253 -3260 0
-3253 -3261 0
-3253 -3262 0
-3253 -3263 0
-3253 -3264 0
-3254 -3255 0
-3254 -3256 0
-3254 -3257 0
-3254 -3258 0
-3254 -3259 0
-3254 -3260 0
-3254 -3261 0
-3254 -3262 0
-3254 -3263 0
-3254 -3264 0
-3255 -3256 0
-3255 -3257 0
-3255 -3258 0
-3255 -3259 0
-3255 -3260 0
-3255 -3261 0
-3255 -3262 0
-3255 -3263 0
-3255 -3264 0
-3256 -3257 0
-3256 -3258 0
-3256 -3259 0
-3256 -3260 0
-3256 -3261 0
-3256 -3262 0
-3256 -3263 0
-3256 -3264 0
-3257 -3258 0
-3257 -3259 0
-3257 -3260 0
-3257 -3261 0
-3257 -3262 0
-3257 -3263 0
-3257 -3264 0
-3258 -3259 0
-3258 -3260 0
-3258 -3261 0
-3258 -3262 0
-3258 -3263 0
-3258 -3264 0
-3259 -3260 0
-3259 -3261 0
-3259 -3262 0
-3259 -3263 0
-3259 -3264 0
-3260 -3261 0
-3260 -3262 0
-3260 -3263 0
-3260 -3264 0
-3261 -3262 0
-3261 -3263 0
-3261 -3264 0
-3262 -3263 0
-3262 -3264 0
-3263 -3264 0
3265 3266 3267 3268 3269 3270 3271 3272 3273 3274 3275 3276 3277 3278 3279 3280 0
-3265 -3266 0
-3265 -3267 0
-3265 -3268 0
-3265 -3269 0
-3265 -3270 0
-3265 -3271 0
-3265 -3272 0
-3265 -3273 0
-3265 -3274 0
-3265 -3275 0
-3265 -3276 0
-3265 -3277 0
-3265 -3278 0
-3265 -3279 0
-3265 -3280 0
-3266 -3267 0
-3266 -3268 0
-3266 -3269 0
-3266 -3270 0
-3266 -3271 0
-3266 -3272 0
-3266 -3273 0
-3266 -3274 0
-3266 -3275 0
-3266 -3276 0
-3266 -3277 0
-3266 -3278 0
-3266 -3279 0
-3266 -3280 0
-3267 -3268 0
-3267 -3269 0
-3267 -3270 0
-3267 -3271 0
-3267 -3272 0
-3267 -3273 0
-3267 -3274 0
-3267 -3275 0
-3267 -3276 0
-3267 -3277 0
-3267 -3278 0
-3267 -3279 0
-3267 -3280 0
-3268 -3269 0
-3268 -3270 0
-3268 -3271 0
-3268 -3272 0
-3268 -3273 0
-3268 -3274 0
-3268 -3275 0
-3268 -3276 0
-3268 -3277 0
-3268 -3278 0
-3268 -3279 0
-3268 -3280 0
-3269 -3270 0
-3269 -3271 0
-3269 -3272 0
-3269 -3273 0
-3269 -3274 0
-3269 -3275 0
-3269 -3276 0
-3269 -3277 0
-3269 -3278 0
-3269 -3279 0
-3269 -3280 0
-3270 -3271 0
-3270 -3272 0
-3270 -3273 0
-3270 -3274 0
-3270 -3275 0
-3270 -3276 0
-3270 -3277 0
-3270 -3278 0
-3270 -3279 0
-3270 -3280 0
-3271 -3272 0
-3271 -3273 0
-3271 -3274 0
-3271 -3275 0
-3271 -3276 0
-3271 -3277 0
-3271 -3278 0
-3271 -3279 0
-3271 -3280 0
-3272 -3273 0
-3272 -3274 0
-3272 -3275 0
-3272 -3276 0
-3272 -3277 0
-3272 -3278 0
-3272 -3279 0
-3272 -3280 0
-3273 -3274 0
-3273 -3275 0
-3273 -3276 0
-3273 -3277 0
-3273 -3278 0
-3273 -3279 0
-3273 -3280 0
-3274 -3275 0
-3274 -3276 0
-3274 -3277 0
-3274 -3278 0
-3274 -3279 0
-3274 -3280 0
-3275 -3276 0
-3275 -3277 0
-3275 -3278 0
-3275 -3279 0
-3275 -3280 0
-3276 -3277 0
-3276 -3278 0
-3276 -3279 0
-3276 -3280 0
-3277 -3278 0
-3277 -3279 0
-3277 -3280 0
-3278 -3279 0
-3278 -3280 0
-3279 -3280 0
3281 3282 3283 3284 3285 3286 3287 3288 3289 3290 3291 3292 3293 3294 3295 3296 0
-3281 -3282 0
-3281 -3283 0
-3281 -3284 0
-3281 -3285 0
-3281 -3286 0
-3281 -3287 0
-3281 -3288 0
-3281 -3289 0
-3281 -3290 0
-3281 -3291 0
-3281 -3292 0
-3281 -3293 0
-3281 -3294 0
-3281 -3295 0
-3281 -3296 0
-3282 -3283 0
-3282 -3284 0
-3282 -3285 0
-3282 -3286 0
-3282 -3287 0
-3282 -3288 0
-3282 -3289 0
-3282 -3290 0
-3282 -3291 0
-3282 -3292 0
-3282 -3293 0
-3282 -3294 0
-3282 -3295 0
-3282 -3296 0
-3283 -3284 0
-3283 -3285 0
-3283 -3286 0
-3283 -3287 0
-3283 -3288 0
-3283 -3289 0
-3283 -3290 0
-3283 -3291 0
-3283 -3292 0
-3283 -3293 0
-3283 -3294 0
-3283 -3295 0
-3283 -3296 0
-3284 -3285 0
-3284 -3286 0
-3284 -3287 0
-3284 -3288 0
-3284 -3289 0
-3284 -3290 0
-3284 -3291 0
-3284 -3292 0
-3284 -3293 0
-3284 -3294 0
-3284 -3295 0
-3284 -3296 0
-3285 -3286 0
-3285 -3287 0
-3285 -3288 0
-3285 -3289 0
-3285 -3290 0
-3285 -3291 0
-3285 -3292 0
-3285 -3293 0
-3285 -3294 0
-3285 -3295 0
-3285 -3296 0
-3286 -3287 0
-3286 -3288 0
-3286 -3289 0
-3286 -3290 0
-3286 -3291 0
-3286 -3292 0
-3286 -3293 0
-3286 -3294 0
-3286 -3295 0
-3286 -3296 0
-3287 -3288 0
-3287 -3289 0
-3287 -3290 0
-3287 -3291 0
-3287 -3292 0
-3287 -3293 0
-3287 -3294 0
-3287 -3295 0
-3287 -3296 0
-3288 -3289 0
-3288 -3290 0
-3288 -3291 0
-3288 -3292 0
-3288 -3293 0
-3288 -3294 0
-3288 -3295 0
-3288 -3296 0
-3289 -3290 0
-3289 -3291 0
-3289 -3292 0
-3289 -3293 0
-3289 -3294 0
-3289 -3295 0
-3289 -3296 0
-3290 -3291 0
-3290 -3292 0
-3290 -3293 0
-3290 -3294 0
-3290 -3295 0
-3290 -3296 0
-3291 -3292 0
-3291 -3293 0
-3291 -3294 0
-3291 -3295 0
-3291 -3296 0
-3292 -3293 0
-3292 -3294 0
-3292 -3295 0
-3292 -3296 0
-3293 -3294 0
-3293 -3295 0
-3293 -3296 0
-3294 -3295 0
-3294 -3296 0
-3295 -3296 0
3297 3298 3299 3300 3301 3302 3303 3304 3305 3306 3307 3308 3309 3310 3311 3312 0
-3297 -3298 0
-3297 -3299 0
-3297 -3300 0
-3297 -3301 0
-3297 -3302 0
-3297 -3303 0
-3297 -3304 0
-3297 -3305 0
-3297 -3306 0
-3297 -3307 0
-3297 -3308 0
-3297 -3309 0
-3297 -3310 0
-3297 -3311 0
-3297 -3312 0
-3298 -3299 0
-3298 -3300 0
-3298 -3301 0
-3298 -3302 0
-3298 -3303 0
-3298 -3304 0
-3298 -3305 0
-3298 -3306 0
-3298 -3307 0
-3298 -3308 0
-3298 -3309 0
-3298 -3310 0
-3298 -3311 0
-3298 -3312 0
-3299 -3300 0
-3299 -3301 0
-3299 -3302 0
-3299 -3303 0
-3299 -3304 0
-3299 -3305 0
-3299 -3306 0
-3299 -3307 0
-3299 -3308 0
-3299 -3309 0
-3299 -3310 0
-3299 -3311 0
-3299 -3312 0
-3300 -3301 0
-3300 -3302 0
-3300 -3303 0
-3300 -3304 0
-3300 -3305 0
-3300 -3306 0
-3300 -3307 0
-3300 -3308 0
-3300 -3309 0
-3300 -3310 0
-3300 -3311 0
-3300 -3312 0
-3301 -3302 0
-3301 -3303 0
-3301 -3304 0
-3301 -3305 0
-3301 -3306 0
-3301 -3307 0
-3301 -3308 0
-3301 -3309 0
-3301 -3310 0
-3301 -3311 0
-3301 -3312 0
-3302 -3303 0
-3302 -3304 0
-3302 -3305 0
-3302 -3306 0
-3302 -3307 0
-3302 -3308 0
-3302 -3309 0
-3302 -3310 0
-3302 -3311 0
-3302 -3312 0
-3303 -3304 0
-3303 -3305 0
-3303 -3306 0
-3303 -3307 0
-3303 -3308 0
-3303 -3309 0
-3303 -3310 0
-3303 -3311 0
-3303 -3312 0
-3304 -3305 0
-3304 -3306 0
-3304 -3307 0
-3304 -3308 0
-3304 -3309 0
-3304 -3310 0
-3304 -3311 0
-3304 -3312 0
-3305 -3306 0
-3305 -3307 0
-3305 -3308 0
-3305 -3309 0
-3305 -3310 0
-3305 -3311 0
-3305 -3312 0
-3306 -3307 0
-3306 -3308 0
-3306 -3309 0
-3306 -3310 0
-3306 -3311 0
-3306 -3312 0
-3307 -3308 0
-3307 -3309 0
-3307 -3310 0
-3307 -3311 0
-3307 -3312 0
-3308 -3309 0
-3308 -3310 0
-3308 -3311 0
-3308 -3312 0
-3309 -3310 0
-3309 -3311 0
-3309 -3312 0
-3310 -3311 0
-3310 -3312 0
-3311 -3312 0
3313 3314 3315 3316 3317 3318 3319 3320 3321 3322 3323 3324 3325 3326 3327 3328 0
-3313 -3314 0
-3313 -3315 0
-3313 -3316 0
-3313 -3317 0
-3313 -3318 0
-3313 -3319 0
-3313 -3320 0
-3313 -3321 0
-3313 -3322 0
-3313 -3323 0
-3313 -3324 0
-3313 -3325 0
-3313 -3326 0
-3313 -3327 0
-3313 -3328 0
-3314 -3315 0
-3314 -3316 0
-3314 -3317 0
-3314 -3318 0
-3314 -3319 0
-3314 -3320 0
-3314 -3321 0
-3314 -3322 0
-3314 -3323 0
-3314 -3324 0
-3314 -3325 0
-3314 -3326 0
-3314 -3327 0
-3314 -3328 0
-3315 -3316 0
-3315 -3317 0
-3315 -3318 0
-3315 -3319 0
-3315 -3320 0
-3315 -3321 0
-3315 -3322 0
-3315 -3323 0
-3315 -3324 0
-3315 -3325 0
-3315 -3326 0
-3315 -3327 0
-3315 -3328 0
-3316 -3317 0
-3316 -3318 0
-3316 -3319 0
-3316 -3320 0
-3316 -3321 0
-3316 -3322 0
-3316 -3323 0
-3316 -3324 0
-3316 -3325 0
-3316 -3326 0
-3316 -3327 0
-3316 -3328 0
-3317 -3318 0
-3317 -3319 0
-3317 -3320 0
-3317 -3321 0
-3317 -3322 0
-3317 -3323 0
-3317 -3324 0
-3317 -3325 0
-3317 -3326 0
-3317 -3327 0
-3317 -3328 0
-3318 -3319 0
-3318 -3320 0
-3318 -3321 0
-3318 -3322 0
-3318 -3323 0
-3318 -3324 0
-3318 -3325 0
-3318 -3326 0
-3318 -3327 0
-3318 -3328 0
-3319 -3320 0
-3319 -3321 0
-3319 -3322 0
-3319 -3323 0
-3319 -3324 0
-3319 -3325 0
-3319 -3326 0
-3319 -3327 0
-3319 -3328 0
-3320 -3321 0
-3320 -3322 0
-3320 -3323 0
-3320 -3324 0
-3320 -3325 0
-3320 -3326 0
-3320 -3327 0
-3320 -3328 0
-3321 -3322 0
-3321 -3323 0
-3321 -3324 0
-3321 -3325 0
-3321 -3326 0
-3321 -3327 0
-3321 -3328 0
-3322 -3323 0
-3322 -3324 0
-3322 -3325 0
-3322 -3326 0
-3322 -3327 0
-3322 -3328 0
-3323 -3324 0
-3323 -3325 0
-3323 -3326 0
-3323 -3327 0
-3323 -3328 0
-3324 -3325 0
-3324 -3326 0
-3324 -3327 0
-3324 -3328 0
-3325 -3326 0
-3325 -3327 0
-3325 -3328 0
-3326 -3327 0
-3326 -3328 0
-3327 -3328 0
3329 3330 3331 3332 3333 3334 3335 3336 3337 3338 3339 3340 3341 3342 3343 3344 0
-3329 -3330 0
-3329 -3331 0
-3329 -3332 0
-3329 -3333 0
-3329 -3334 0
-3329 -3335 0
-3329 -3336 0
-3329 -3337 0
-3329 -3338 0
-3329 -3339 0
-3329 -3340 0
-3329 -3341 0
-3329 -3342 0
-3329 -3343 0
-3329 -3344 0
-3330 -3331 0
-3330 -3332 0
-3330 -3333 0
-3330 -3334 0
-3330 -3335 0
-3330 -3336 0
-3330 -3337 0
-3330 -3338 0
-3330 -3339 0
-3330 -3340 0
-3330 -3341 0
-3330 -3342 0
-3330 -3343 0
-3330 -3344 0
-3331 -3332 0
-3331 -3333 0
-3331 -3334 0
-3331 -3335 0
-3331 -3336 0
-3331 -3337 0
-3331 -3338 0
-3331 -3339 0
-3331 -3340 0
-3331 -3341 0
-3331 -3342 0
-3331 -3343 0
-3331 -3344 0
-3332 -3333 0
-3332 -3334 0
-3332 -3335 0
-3332 -3336 0
-3332 -3337 0
-3332 -3338 0
-3332 -3339 0
-3332 -3340 0
-3332 -3341 0
-3332 -3342 0
-3332 -3343 0
-3332 -3344 0
-3333 -3334 0
-3333 -3335 0
-3333 -3336 0
-3333 -3337 0
-3333 -3338 0
-3333 -3339 0
-3333 -3340 0
-3333 -3341 0
-3333 -3342 0
-3333 -3343 0
-3333 -3344 0
-3334 -3335 0
-3334 -3336 0
-3334 -3337 0
-3334 -3338 0
-3334 -3339 0
-3334 -3340 0
-3334 -3341 0
-3334 -3342 0
-3334 -3343 0
-3334 -3344 0
-3335 -3336 0
-3335 -3337 0
-3335 -3338 0
-3335 -3339 0
-3335 -3340 0
-3335 -3341 0
-3335 -3342 0
-3335 -3343 0
-3335 -3344 0
-3336 -3337 0
-3336 -3338 0
-3336 -3339 0
-3336 -3340 0
-3336 -3341 0
-3336 -3342 0
-3336 -3343 0
-3336 -3344 0
-3337 -3338 0
-3337 -3339 0
-3337 -3340 0
-3337 -3341 0
-3337 -3342 0
-3337 -3343 0
-3337 -3344 0
-3338 -3339 0
-3338 -3340 0
-3338 -3341 0
-3338 -3342 0
-3338 -3343 0
-3338 -3344 0
-3339 -3340 0
-3339 -3341 0
-3339 -3342 0
-3339 -3343 0
-3339 -3344 0
-3340 -3341 0
-3340 -3342 0
-3340 -3343 0
-3340 -3344 0
-3341 -3342 0
-3341 -3343 0
-3341 -3344 0
-3342 -3343 0
-3342 -3344 0
-3343 -3344 0
3345 3346 3347 3348 3349 3350 3351 3352 3353 3354 3355 3356 3357 3358 3359 3360 0
-3345 -3346 0
-3345 -3347 0
-3345 -3348 0
-3345 -3349 0
-3345 -3350 0
-3345 -3351 0
-3345 -3352 0
-3345 -3353 0
-3345 -3354 0
-3345 -3355 0
-3345 -3356 0
-3345 -3357 0
-3345 -3358 0
-3345 -3359 0
-3345 -3360 0
-3346 -3347 0
-3346 -3348 0
-3346 -3349 0
-3346 -3350 0
-3346 -3351 0
-3346 -3352 0
-3346 -3353 0
-3346 -3354 0
-3346 -3355 0
-3346 -3356 0
-3346 -3357 0
-3346 -3358 0
-3346 -3359 0
-3346 -3360 0
-3347 -3348 0
-3347 -3349 0
-3347 -3350 0
-3347 -3351 0
-3347 -3352 0
-3347 -3353 0
-3347 -3354 0
-3347 -3355 0
-3347 -3356 0
-3347 -3357 0
-3347 -3358 0
-3347 -3359 0
-3347 -3360 0
-3348 -3349 0
-3348 -3350 0
-3348 -3351 0
-3348 -3352 0
-3348 -3353 0
-3348 -3354 0
-3348 -3355 0
-3348 -3356 0
-3348 -3357 0
-3348 -3358 0
-3348 -3359 0
-3348 -3360 0
-3349 -3350 0
-3349 -3351 0
-3349 -3352 0
-3349 -3353 0
-3349 -3354 0
-3349 -3355 0
-3349 -3356 0
-3349 -3357 0
-3349 -3358 0
-3349 -3359 0
-3349 -3360 0
-3350 -3351 0
-3350 -3352 0
-3350 -3353 0
-3350 -3354 0
-3350 -3355 0
-3350 -3356 0
-3350 -3357 0
-3350 -3358 0
-3350 -3359 0
-3350 -3360 0
-3351 -3352 0
-3351 -3353 0
-3351 -3354 0
-3351 -3355 0
-3351 -3356 0
-3351 -3357 0
-3351 -3358 0
-3351 -3359 0
-3351 -3360 0
-3352 -3353 0
-3352 -3354 0
-3352 -3355 0
-3352 -3356 0
-3352 -3357 0
-3352 -3358 0
-3352 -3359 0
-3352 -3360 0
-3353 -3354 0
-3353 -3355 0
-3353 -3356 0
-3353 -3357 0
-3353 -3358 0
-3353 -3359 0
-3353 -3360 0
-3354 -3355 0
-3354 -3356 0
-3354 -3357 0
-3354 -3358 0
-3354 -3359 0
-3354 -3360 0
-3355 -3356 0
-3355 -3357 0
-3355 -3358 0
-3355 -3359 0
-3355 -3360 0
-3356 -3357 0
-3356 -3358 0
-3356 -3359 0
-3356 -3360 0
-3357 -3358 0
-3357 -3359 0
-3357 -3360 0
-3358 -3359 0
-3358 -3360 0
-3359 -3360 0
3361 3362 3363 3364 3365 3366 3367 3368 3369 3370 3371 3372 3373 3374 3375 3376 0
-3361 -3362 0
-3361 -3363 0
-3361 -3364 0
-3361 -3365 0
-3361 -3366 0
-3361 -3367 0
-3361 -3368 0
-3361 -3369 0
-3361 -3370 0
-3361 -3371 0
-3361 -3372 0
-3361 -3373 0
-3361 -3374 0
-3361 -3375 0
-3361 -3376 0
-3362 -3363 0
-3362 -3364 0
-3362 -3365 0
-3362 -3366 0
-3362 -3367 0
-3362 -3368 0
-3362 -3369 0
-3362 -3370 0
-3362 -3371 0
-3362 -3372 0
-3362 -3373 0
-3362 -3374 0
-3362 -3375 0
-3362 -3376 0
-3363 -3364 0
-3363 -3365 0
-3363 -3366 0
-3363 -3367 0
-3363 -3368 0
-3363 -3369 0
-3363 -3370 0
-3363 -3371 0
-3363 -3372 0
-3363 -3373 0
-3363 -3374 0
-3363 -3375 0
-3363 -3376 0
-3364 -3365 0
-3364 -3366 0
-3364 -3367 0
-3364 -3368 0
-3364 -3369 0
-3364 -3370 0
-3364 -3371 0
-3364 -3372 0
-3364 -3373 0
-3364 -3374 0
-3364 -3375 0
-3364 -3376 0
-3365 -3366 0
-3365 -3367 0
-3365 -3368 0
-3365 -3369 0
-3365 -3370 0
-3365 -3371 0
-3365 -3372 0
-3365 -3373 0
-3365 -3374 0
-3365 -3375 0
-3365 -3376 0
-3366 -3367 0
-3366 -3368 0
-3366 -3369 0
-3366 -3370 0
-3366 -3371 0
-3366 -3372 0
-3366 -3373 0
-3366 -3374 0
-3366 -3375 0
-3366 -3376 0
-3367 -3368 0
-3367 -3369 0
-3367 -3370 0
-3367 -3371 0
-3367 -3372 0
-3367 -3373 0
-3367 -3374 0
-3367 -3375 0
-3367 -3376 0
-3368 -3369 0
-3368 -3370 0
-3368 -3371 0
-3368 -3372 0
-3368 -3373 0
-3368 -3374 0
-3368 -3375 0
-3368 -3376 0
-3369 -3370 0
-3369 -3371 0
-3369 -3372 0
-3369 -3373 0
-3369 -3374 0
-3369 -3375 0
-3369 -3376 0
-3370 -3371 0
-3370 -3372 0
-3370 -3373 0
-3370 -3374 0
-3370 -3375 0
-3370 -3376 0
-3371 -3372 0
-3371 -3373 0
-3371 -3374 0
-3371 -3375 0
-3371 -3376 0
-3372 -3373 0
-3372 -3374 0
-3372 -3375 0
-3372 -3376 0
-3373 -3374 0
-3373 -3375 0
-3373 -3376 0
-3374 -3375 0
-3374 -3376 0
-3375 -3376 0
3377 3378 3379 3380 3381 3382 3383 3384 3385 3386 3387 3388 3389 3390 3391 3392 0
-3377 -3378 0
-3377 -3379 0
-3377 -3380 0
-3377 -3381 0
-3377 -3382 0
-3377 -3383 0
-3377 -3384 0
-3377 -3385 0
-3377 -3386 0
-3377 -3387 0
-3377 -3388 0
-3377 -3389 0
-3377 -3390 0
-3377 -3391 0
-3377 -3392 0
-3378 -3379 0
-3378 -3380 0
-3378 -3381 0
-3378 -3382 0
-3378 -3383 0
-3378 -3384 0
-3378 -3385 0
-3378 -3386 0
-3378 -3387 0
-3378 -3388 0
-3378 -3389 0
-3378 -3390 0
-3378 -3391 0
-3378 -3392 0
-3379 -3380 0
-3379 -3381 0
-3379 -3382 0
-3379 -3383 0
-3379 -3384 0
-3379 -3385 0
-3379 -3386 0
-3379 -3387 0
-3379 -3388 0
-3379 -3389 0
-3379 -3390 0
-3379 -3391 0
-3379 -3392 0
-3380 -3381 0
-3380 -3382 0
-3380 -3383 0
-3380 -3384 0
-3380 -3385 0
-3380 -3386 0
-3380 -3387 0
-3380 -3388 0
-3380 -3389 0
-3380 -3390 0
-3380 -3391 0
-3380 -3392 0
-3381 -3382 0
-3381 -3383 0
-3381 -3384 0
-3381 -3385 0
-3381 -3386 0
-3381 -3387 0
-3381 -3388 0
-3381 -3389 0
-3381 -3390 0
-3381 -3391 0
-3381 -3392 0
-3382 -3383 0
-3382 -3384 0
-3382 -3385 0
-3382 -3386 0
-3382 -3387 0
-3382 -3388 0
-3382 -3389 0
-3382 -3390 0
-3382 -3391 0
-3382 -3392 0
-3383 -3384 0
-3383 -3385 0
-3383 -3386 0
-3383 -3387 0
-3383 -3388 0
-3383 -3389 0
-3383 -3390 0
-3383 -3391 0
-3383 -3392 0
-3384 -3385 0
-3384 -3386 0
-3384 -3387 0
-3384 -3388 0
-3384 -3389 0
-3384 -3390 0
-3384 -3391 0
-3384 -3392 0
-3385 -3386 0
-3385 -3387 0
-3385 -3388 0
-3385 -3389 0
-3385 -3390 0
-3385 -3391 0
-3385 -3392 0
-3386 -3387 0
-3386 -3388 0
-3386 -3389 0
-3386 -3390 0
-3386 -3391 0
-3386 -3392 0
-3387 -3388 0
-3387 -3389 0
-3387 -3390 0
-3387 -3391 0
-3387 -3392 0
-3388 -3389 0
-3388 -3390 0
-3388 -3391 0
-3388 -3392 0
-3389 -3390 0
-3389 -3391 0
-3389 -3392 0
-3390 -3391 0
-3390 -3392 0
-3391 -3392 0
3393 3394 3395 3396 3397 3398 3399 3400 3401 3402 3403 3404 3405 3406 3407 3408 0
-3393 -3394 0
-3393 -3395 0
-3393 -3396 0
-3393 -3397 0
-3393 -3398 0
-3393 -3399 0
-3393 -3400 0
-3393 -3401 0
-3393 -3402 0
-3393 -3403 0
-3393 -3404 0
-3393 -3405 0
-3393 -3406 0
-3393 -3407 0
-3393 -3408 0
-3394 -3395 0
-3394 -3396 0
-3394 -3397 0
-3394 -3398 0
-3394 -3399 0
-3394 -3400 0
-3394 -3401 0
-3394 -3402 0
-3394 -3403 0
-3394 -3404 0
-3394 -3405 0
-3394 -3406 0
-3394 -3407 0
-3394 -3408 0
-3395 -3396 0
-3395 -3397 0
-3395 -3398 0
-3395 -3399 0
-3395 -3400 0
-3395 -3401 0
-3395 -3402 0
-3395 -3403 0
-3395 -3404 0
-3395 -3405 0
-3395 -3406 0
-3395 -3407 0
-3395 -3408 0
-3396 -3397 0
-3396 -3398 0
-3396 -3399 0
-3396 -3400 0
-3396 -3401 0
-3396 -3402 0
-3396 -3403 0
-3396 -3404 0
-3396 -3405 0
-3396 -3406 0
-3396 -3407 0
-3396 -3408 0
-3397 -3398 0
-3397 -3399 0
-3397 -3400 0
-3397 -3401 0
-3397 -3402 0
-3397 -3403 0
-3397 -3404 0
-3397 -3405 0
-3397 -3406 0
-3397 -3407 0
-3397 -3408 0
-3398 -3399 0
-3398 -3400 0
-3398 -3401 0
-3398 -3402 0
-3398 -3403 0
-3398 -3404 0
-3398 -3405 0
-3398 -3406 0
-3398 -3407 0
-3398 -3408 0
-3399 -3400 0
-3399 -3401 0
-3399 -3402 0
-3399 -3403 0
-3399 -3404 0
-3399 -3405 0
-3399 -3406 0
-3399 -3407 0
-3399 -3408 0
-3400 -3401 0
-3400 -3402 0
-3400 -3403 0
-3400 -3404 0
-3400 -3405 0
-3400 -3406 0
-3400 -3407 0
-3400 -3408 0
-3401 -3402 0
-3401 -3403 0
-3401 -3404 0
-3401 -3405 0
-3401 -3406 0
-3401 -3407 0
-3401 -3408 0
-3402 -3403 0
-3402 -3404 0
-3402 -3405 0
-3402 -3406 0
-3402 -3407 0
-3402 -3408 0
-3403 -3404 0
-3403 -3405 0
-3403 -3406 0
-3403 -3407 0
-3403 -3408 0
-3404 -3405 0
-3404 -3406 0
-3404 -3407 0
-3404 -3408 0
-3405 -3406 0
-3405 -3407 0
-3405 -3408 0
-3406 -3407 0
-3406 -3408 0
-3407 -3408 0
3409 3410 3411 3412 3413 3414 3415 3416 3417 3418 3419 3420 3421 3422 3423 3424 0
-3409 -3410 0
-3409 -3411 0
-3409 -3412 0
-3409 -3413 0
-3409 -3414 0
-3409 -3415 0
-3409 -3416 0
-3409 -3417 0
-3409 -3418 0
-3409 -3419 0
-3409 -3420 0
-3409 -3421 0
-3409 -3422 0
-3409 -3423 0
-3409 -3424 0
-3410 -3411 0
-3410 -3412 0
-3410 -3413 0
-3410 -3414 0
-3410 -3415 0
-3410 -3416 0
-3410 -3417 0
-3410 -3418 0
-3410 -3419 0
-3410 -3420 0
-3410 -3421 0
-3410 -3422 0
-3410 -3423 0
-3410 -3424 0
-3411 -3412 0
-3411 -3413 0
-3411 -3414 0
-3411 -3415 0
-3411 -3416 0
-3411 -3417 0
-3411 -3418 0
-3411 -3419 0
-3411 -3420 0
-3411 -3421 0
-3411 -3422 0
-3411 -3423 0
-3411 -3424 0
-3412 -3413 0
-3412 -3414 0
-3412 -3415 0
-3412 -3416 0
-3412 -3417 0
-3412 -3418 0
-3412 -3419 0
-3412 -3420 0
-3412 -3421 0
-3412 -3422 0
-3412 -3423 0
-3412 -3424 0
-3413 -3414 0
-3413 -3415 0
-3413 -3416 0
-3413 -3417 0
-3413 -3418 0
-3413 -3419 0
-3413 -3420 0
-3413 -3421 0
-3413 -3422 0
-3413 -3423 0
-3413 -3424 0
-3414 -3415 0
-3414 -3416 0
-3414 -3417 0
-3414 -3418 0
-3414 -3419 0
-3414 -3420 0
-3414 -3421 0
-3414 -3422 0
-3414 -3423 0
-3414 -3424 0
-3415 -3416 0
-3415 -3417 0
-3415 -3418 0
-3415 -3419 0
-3415 -3420 0
-3415 -3421 0
-3415 -3422 0
-3415 -3423 0
-3415 -3424 0
-3416 -3417 0
-3416 -3418 0
-3416 -3419 0
-3416 -3420 0
-3416 -3421 0
-3416 -3422 0
-3416 -3423 0
-3416 -3424 0
-3417 -3418 0
-3417 -3419 0
-3417 -3420 0
-3417 -3421 0
-3417 -3422 0
-3417 -3423 0
-3417 -3424 0
-3418 -3419 0
-3418 -3420 0
-3418 -3421 0
-3418 -3422 0
-3418 -3423 0
-3418 -3424 0
-3419 -3420 0
-3419 -3421 0
-3419 -3422 0
-3419 -3423 0
-3419 -3424 0
-3420 -3421 0
-3420 -3422 0
-3420 -3423 0
-3420 -3424 0
-3421 -3422 0
-3421 -3423 0
-3421 -3424 0
-3422 -3423 0
-3422 -3424 0
-3423 -3424 0
3425 3426 3427 3428 3429 3430 3431 3432 3433 3434 3435 3436 3437 3438 3439 3440 0
-3425 -3426 0
-3425 -3427 0
-3425 -3428 0
-3425 -3429 0
-3425 -3430 0
-3425 -3431 0
-3425 -3432 0
-3425 -3433 0
-3425 -3434 0
-3425 -3435 0
-3425 -3436 0
-3425 -3437 0
-3425 -3438 0
-3425 -3439 0
-3425 -3440 0
-3426 -3427 0
-3426 -3428 0
-3426 -3429 0
-3426 -3430 0
-3426 -3431 0
-3426 -3432 0
-3426 -3433 0
-3426 -3434 0
-3426 -3435 0
-3426 -3436 0
-3426 -3437 0
-3426 -3438 0
-3426 -3439 0
-3426 -3440 0
-3427 -3428 0
-3427 -3429 0
-3427 -3430 0
-3427 -3431 0
-3427 -3432 0
-3427 -3433 0
-3427 -3434 0
-3427 -3435 0
-3427 -3436 0
-3427 -3437 0
-3427 -3438 0
-3427 -3439 0
-3427 -3440 0
-3428 -3429 0
-3428 -3430 0
-3428 -3431 0
-3428 -3432 0
-3428 -3433 0
-3428 -3434 0
-3428 -3435 0
-3428 -3436 0
-3428 -3437 0
-3428 -3438 0
-3428 -3439 0
-3428 -3440 0
-3429 -3430 0
-3429 -3431 0
-3429 -3432 0
-3429 -3433 0
-3429 -3434 0
-3429 -3435 0
-3429 -3436 0
-3429 -3437 0
-3429 -3438 0
-3429 -3439 0
-3429 -3440 0
-3430 -3431 0
-3430 -3432 0
-3430 -3433 0
-3430 -3434 0
-3430 -3435 0
-3430 -3436 0
-3430 -3437 0
-3430 -3438 0
-3430 -3439 0
-3430 -3440 0
-3431 -3432 0
-3431 -3433 0
-3431 -3434 0
-3431 -3435 0
-3431 -3436 0
-3431 -3437 0
-3431 -3438 0
-3431 -3439 0
-3431 -3440 0
-3432 -3433 0
-3432 -3434 0
-3432 -3435 0
-3432 -3436 0
-3432 -3437 0
-3432 -3438 0
-3432 -3439 0
-3432 -3440 0
-3433 -3434 0
-3433 -3435 0
-3433 -3436 0
-3433 -3437 0
-3433 -3438 0
-3433 -3439 0
-3433 -3440 0
-3434 -3435 0
-3434 -3436 0
-3434 -3437 0
-3434 -3438 0
-3434 -3439 0
-3434 -3440 0
-3435 -3436 0
-3435 -3437 0
-3435 -3438 0
-3435 -3439 0
-3435 -3440 0
-3436 -3437 0
-3436 -3438 0
-3436 -3439 0
-3436 -3440 0
-3437 -3438 0
-3437 -3439 0
-3437 -3440 0
-3438 -3439 0
-3438 -3440 0
-3439 -3440 0
3441 3442 3443 3444 3445 3446 3447 3448 3449 3450 3451 3452 3453 3454 3455 3456 0
-3441 -3442 0
-3441 -3443 0
-3441 -3444 0
-3441 -3445 0
-3441 -3446 0
-3441 -3447 0
-3441 -3448 0
-3441 -3449 0
-3441 -3450 0
-3441 -3451 0
-3441 -3452 0
-3441 -3453 0
-3441 -3454 0
-3441 -3455 0
-3441 -3456 0
-3442 -3443 0
-3442 -3444 0
-3442 -3445 0
-3442 -3446 0
-3442 -3447 0
-3442 -3448 0
-3442 -3449 0
-3442 -3450 0
-3442 -3451 0
-3442 -3452 0
-3442 -3453 0
-3442 -3454 0
-3442 -3455 0
-3442 -3456 0
-3443 -3444 0
-3443 -3445 0
-3443 -3446 0
-3443 -3447 0
-3443 -3448 0
-3443 -3449 0
-3443 -3450 0
-3443 -3451 0
-3443 -3452 0
-3443 -3453 0
-3443 -3454 0
-3443 -3455 0
-3443 -3456 0
-3444 -3445 0
-3444 -3446 0
-3444 -3447 0
-3444 -3448 0
-3444 -3449 0
-3444 -3450 0
-3444 -3451 0
-3444 -3452 0
-3444 -3453 0
-3444 -3454 0
-3444 -3455 0
-3444 -3456 0
-3445 -3446 0
-3445 -3447 0
-3445 -3448 0
-3445 -3449 0
-3445 -3450 0
-3445 -3451 0
-3445 -3452 0
-3445 -3453 0
-3445 -3454 0
-3445 -3455 0
-3445 -3456 0
-3446 -3447 0
-3446 -3448 0
-3446 -3449 0
-3446 -3450 0
-3446 -3451 0
-3446 -3452 0
-3446 -3453 0
-3446 -3454 0
-3446 -3455 0
-3446 -3456 0
-3447 -3448 0
-3447 -3449 0
-3447 -3450 0
-3447 -3451 0
-3447 -3452 0
-3447 -3453 0
-3447 -3454 0
-3447 -3455 0
-3447 -3456 0
-3448 -3449 0
-3448 -3450 0
-3448 -3451 0
-3448 -3452 0
-3448 -3453 0
-3448 -3454 0
-3448 -3455 0
-3448 -3456 0
-3449 -3450 0
-3449 -3451 0
-3449 -3452 0
-3449 -3453 0
-3449 -3454 0
-3449 -3455 0
-3449 -3456 0
-3450 -3451 0
-3450 -3452 0
-3450 -3453 0
-3450 -3454 0
-3450 -3455 0
-3450 -3456 0
-3451 -3452 0
-3451 -3453 0
-3451 -3454 0
-3451 -3455 0
-3451 -3456 0
-3452 -3453 0
-3452 -3454 0
-3452 -3455 0
-3452 -3456 0
-3453 -3454 0
-3453 -3455 0
-3453 -3456 0
-3454 -3455 0
-3454 -3456 0
-3455 -3456 0
3457 3458 3459 3460 3461 3462 3463 3464 3465 3466 3467 3468 3469 3470 3471 3472 0
-3457 -3458 0
-3457 -3459 0
-3457 -3460 0
-3457 -3461 0
-3457 -3462 0
-3457 -3463 0
-3457 -3464 0
-3457 -3465 0
-3457 -3466 0
-3457 -3467 0
-3457 -3468 0
-3457 -3469 0
-3457 -3470 0
-3457 -3471 0
-3457 -3472 0
-3458 -3459 0
-3458 -3460 0
-3458 -3461 0
-3458 -3462 0
-3458 -3463 0
-3458 -3464 0
-3458 -3465 0
-3458 -3466 0
-3458 -3467 0
-3458 -3468 0
-3458 -3469 0
-3458 -3470 0
-3458 -3471 0
-3458 -3472 0
-3459 -3460 0
-3459 -3461 0
-3459 -3462 0
-3459 -3463 0
-3459 -3464 0
-3459 -3465 0
-3459 -3466 0
-3459 -3467 0
-3459 -3468 0
-3459 -3469 0
-3459 -3470 0
-3459 -3471 0
-3459 -3472 0
-3460 -3461 0
-3460 -3462 0
-3460 -3463 0
-3460 -3464 0
-3460 -3465 0
-3460 -3466 0
-3460 -3467 0
-3460 -3468 0
-3460 -3469 0
-3460 -3470 0
-3460 -3471 0
-3460 -3472 0
-3461 -3462 0
-3461 -3463 0
-3461 -3464 0
-3461 -3465 0
-3461 -3466 0
-3461 -3467 0
-3461 -3468 0
-3461 -3469 0
-3461 -3470 0
-3461 -3471 0
-3461 -3472 0
-3462 -3463 0
-3462 -3464 0
-3462 -3465 0
-3462 -3466 0
-3462 -3467 0
-3462 -3468 0
-3462 -3469 0
-3462 -3470 0
-3462 -3471 0
-3462 -3472 0
-3463 -3464 0
-3463 -3465 0
-3463 -3466 0
-3463 -3467 0
-3463 -3468 0
-3463 -3469 0
-3463 -3470 0
-3463 -3471 0
-3463 -3472 0
-3464 -3465 0
-3464 -3466 0
-3464 -3467 0
-3464 -3468 0
-3464 -3469 0
-3464 -3470 0
-3464 -3471 0
-3464 -3472 0
-3465 -3466 0
-3465 -3467 0
-3465 -3468 0
-3465 -3469 0
-3465 -3470 0
-3465 -3471 0
-3465 -3472 0
-3466 -3467 0
-3466 -3468 0
-3466 -3469 0
-3466 -3470 0
-3466 -3471 0
-3466 -3472 0
-3467 -3468 0
-3467 -3469 0
-3467 -3470 0
-3467 -3471 0
-3467 -3472 0
-3468 -3469 0
-3468 -3470 0
-3468 -3471 0
-3468 -3472 0
-3469 -3470 0
-3469 -3471 0
-3469 -3472 0
-3470 -3471 0
-3470 -3472 0
-3471 -3472 0
3473 3474 3475 3476 3477 3478 3479 3480 3481 3482 3483 3484 3485 3486 3487 3488 0
-3473 -3474 0
-3473 -3475 0
-3473 -3476 0
-3473 -3477 0
-3473 -3478 0
-3473 -3479 0
-3473 -3480 0
-3473 -3481 0
-3473 -3482 0
-3473 -3483 0
-3473 -3484 0
-3473 -3485 0
-3473 -3486 0
-3473 -3487 0
-3473 -3488 0
-3474 -3475 0
-3474 -3476 0
-3474 -3477 0
-3474 -3478 0
-3474 -3479 0
-3474 -3480 0
-3474 -3481 0
-3474 -3482 0
-3474 -3483 0
-3474 -3484 0
-3474 -3485 0
-3474 -3486 0
-3474 -3487 0
-3474 -3488 0
-3475 -3476 0
-3475 -3477 0
-3475 -3478 0
-3475 -3479 0
-3475 -3480 0
-3475 -3481 0
-3475 -3482 0
-3475 -3483 0
-3475 -3484 0
-3475 -3485 0
-3475 -3486 0
-3475 -3487 0
-3475 -3488 0
-3476 -3477 0
-3476 -3478 0
-3476 -3479 0
-3476 -3480 0
-3476 -3481 0
-3476 -3482 0
-3476 -3483 0
-3476 -3484 0
-3476 -3485 0
-3476 -3486 0
-3476 -3487 0
-3476 -3488 0
-3477 -3478 0
-3477 -3479 0
-3477 -3480 0
-3477 -3481 0
-3477 -3482 0
-3477 -3483 0
-3477 -3484 0
-3477 -3485 0
-3477 -3486 0
-3477 -3487 0
-3477 -3488 0
-3478 -3479 0
-3478 -3480 0
-3478 -3481 0
-3478 -3482 0
-3478 -3483 0
-3478 -3484 0
-3478 -3485 0
-3478 -3486 0
-3478 -3487 0
-3478 -3488 0
-3479 -3480 0
-3479 -3481 0
-3479 -3482 0
-3479 -3483 0
-3479 -3484 0
-3479 -3485 0
-3479 -3486 0
-3479 -3487 0
-3479 -3488 0
-3480 -3481 0
-3480 -3482 0
-3480 -3483 0
-3480 -3484 0
-3480 -3485 0
-3480 -3486 0
-3480 -3487 0
-3480 -3488 0
-3481 -3482 0
-3481 -3483 0
-3481 -3484 0
-3481 -3485 0
-3481 -3486 0
-3481 -3487 0
-3481 -3488 0
-3482 -3483 0
-3482 -3484 0
-3482 -3485 0
-3482 -3486 0
-3482 -3487 0
-3482 -3488 0
-3483 -3484 0
-3483 -3485 0
-3483 -3486 0
-3483 -3487 0
-3483 -3488 0
-3484 -3485 0
-3484 -3486 0
-3484 -3487 0
-3484 -3488 0
-3485 -3486 0
-3485 -3487 0
-3485 -3488 0
-3486 -3487 0
-3486 -3488 0
-3487 -3488 0
3489 3490 3491 3492 3493 3494 3495 3496 3497 3498 3499 3500 3501 3502 3503 3504 0
-3489 -3490 0
-3489 -3491 0
-3489 -3492 0
-3489 -3493 0
-3489 -3494 0
-3489 -3495 0
-3489 -3496 0
-3489 -3497 0
-3489 -3498 0
-3489 -3499 0
-3489 -3500 0
-3489 -3501 0
-3489 -3502 0
-3489 -3503 0
-3489 -3504 0
-3490 -3491 0
-3490 -3492 0
-3490 -3493 0
-3490 -3494 0
-3490 -3495 0
-3490 -3496 0
-3490 -3497 0
-3490 -3498 0
-3490 -3499 0
-3490 -3500 0
-3490 -3501 0
-3490 -3502 0
-3490 -3503 0
-3490 -3504 0
-3491 -3492 0
-3491 -3493 0
-3491 -3494 0
-3491 -3495 0
-3491 -3496 0
-3491 -3497 0
-3491 -3498 0
-3491 -3499 0
-3491 -3500 0
-3491 -3501 0
-3491 -3502 0
-3491 -3503 0
-3491 -3504 0
-3492 -3493 0
-3492 -3494 0
-3492 -3495 0
-3492 -3496 0
-3492 -3497 0
-3492 -3498 0
-3492 -3499 0
-3492 -3500 0
-3492 -3501 0
-3492 -3502 0
-3492 -3503 0
-3492 -3504 0
-3493 -3494 0
-3493 -3495 0
-3493 -3496 0
-3493 -3497 0
-3493 -3498 0
-3493 -3499 0
-3493 -3500 0
-3493 -3501 0
-3493 -3502 0
-3493 -3503 0
-3493 -3504 0
-3494 -3495 0
-3494 -3496 0
-3494 -3497 0
-3494 -3498 0
-3494 -3499 0
-3494 -3500 0
-3494 -3501 0
-3494 -3502 0
-3494 -3503 0
-3494 -3504 0
-3495 -3496 0
-3495 -3497 0
-3495 -3498 0
-3495 -3499 0
-3495 -3500 0
-3495 -3501 0
-3495 -3502 0
-3495 -3503 0
-3495 -3504 0
-3496 -3497 0
-3496 -3498 0
-3496 -3499 0
-3496 -3500 0
-3496 -3501 0
-3496 -3502 0
-3496 -3503 0
-3496 -3504 0
-3497 -3498 0
-3497 -3499 0
-3497 -3500 0
-3497 -3501 0
-3497 -3502 0
-3497 -3503 0
-3497 -3504 0
-3498 -3499 0
-3498 -3500 0
-3498 -3501 0
-3498 -3502 0
-3498 -3503 0
-3498 -3504 0
-3499 -3500 0
-3499 -3501 0
-3499 -3502 0
-3499 -3503 0
-3499 -3504 0
-3500 -3501 0
-3500 -3502 0
-3500 -3503 0
-3500 -3504 0
-3501 -3502 0
-3501 -3503 0
-3501 -3504 0
-3502 -3503 0
-3502 -3504 0
-3503 -3504 0
3505 3506 3507 3508 3509 3510 3511 3512 3513 3514 3515 3516 3517 3518 3519 3520 0
-3505 -3506 0
-3505 -3507 0
-3505 -3508 0
-3505 -3509 0
-3505 -3510 0
-3505 -3511 0
-3505 -3512 0
-3505 -3513 0
-3505 -3514 0
-3505 -3515 0
-3505 -3516 0
-3505 -3517 0
-3505 -3518 0
-3505 -3519 0
-3505 -3520 0
-3506 -3507 0
-3506 -3508 0
-3506 -3509 0
-3506 -3510 0
-3506 -3511 0
-3506 -3512 0
-3506 -3513 0
-3506 -3514 0
-3506 -3515 0
-3506 -3516 0
-3506 -3517 0
-3506 -3518 0
-3506 -3519 0
-3506 -3520 0
-3507 -3508 0
-3507 -3509 0
-3507 -3510 0
-3507 -3511 0
-3507 -3512 0
-3507 -3513 0
-3507 -3514 0
-3507 -3515 0
-3507 -3516 0
-3507 -3517 0
-3507 -3518 0
-3507 -3519 0
-3507 -3520 0
-3508 -3509 0
-3508 -3510 0
-3508 -3511 0
-3508 -3512 0
-3508 -3513 0
-3508 -3514 0
-3508 -3515 0
-3508 -3516 0
-3508 -3517 0
-3508 -3518 0
-3508 -3519 0
-3508 -3520 0
-3509 -3510 0
-3509 -3511 0
-3509 -3512 0
-3509 -3513 0
-3509 -3514 0
-3509 -3515 0
-3509 -3516 0
-3509 -3517 0
-3509 -3518 0
-3509 -3519 0
-3509 -3520 0
-3510 -3511 0
-3510 -3512 0
-3510 -3513 0
-3510 -3514 0
-3510 -3515 0
-3510 -3516 0
-3510 -3517 0
-3510 -3518 0
-3510 -3519 0
-3510 -3520 0
-3511 -3512 0
-3511 -3513 0
-3511 -3514 0
-3511 -3515 0
-3511 -3516 0
-3511 -3517 0
-3511 -3518 0
-3511 -3519 0
-3511 -3520 0
-3512 -3513 0
-3512 -3514 0
-3512 -3515 0
-3512 -3516 0
-3512 -3517 0
-3512 -3518 0
-3512 -3519 0
-3512 -3520 0
-3513 -3514 0
-3513 -3515 0
-3513 -3516 0
-3513 -3517 0
-3513 -3518 0
-3513 -3519 0
-3513 -3520 0
-3514 -3515 0
-3514 -3516 0
-3514 -3517 0
-3514 -3518 0
-3514 -3519 0
-3514 -3520 0
-3515 -3516 0
-3515 -3517 0
-3515 -3518 0
-3515 -3519 0
-3515 -3520 0
-3516 -3517 0
-3516 -3518 0
-3516 -3519 0
-3516 -3520 0
-3517 -3518 0
-3517 -3519 0
-3517 -3520 0
-3518 -3519 0
-3518 -3520 0
-3519 -3520 0
3521 3522 3523 3524 3525 3526 3527 3528 3529 3530 3531 3532 3533 3534 3535 3536 0
-3521 -3522 0
-3521 -3523 0
-3521 -3524 0
-3521 -3525 0
-3521 -3526 0
-3521 -3527 0
-3521 -3528 0
-3521 -3529 0
-3521 -3530 0
-3521 -3531 0
-3521 -3532 0
-3521 -3533 0
-3521 -3534 0
-3521 -3535 0
-3521 -3536 0
-3522 -3523 0
-3522 -3524 0
-3522 -3525 0
-3522 -3526 0
-3522 -3527 0
-3522 -3528 0
-3522 -3529 0
-3522 -3530 0
-3522 -3531 0
-3522 -3532 0
-3522 -3533 0
-3522 -3534 0
-3522 -3535 0
-3522 -3536 0
-3523 -3524 0
-3523 -3525 0
-3523 -3526 0
-3523 -3527 0
-3523 -3528 0
-3523 -3529 0
-3523 -3530 0
-3523 -3531 0
-3523 -3532 0
-3523 -3533 0
-3523 -3534 0
-3523 -3535 0
-3523 -3536 0
-3524 -3525 0
-3524 -3526 0
-3524 -3527 0
-3524 -3528 0
-3524 -3529 0
-3524 -3530 0
-3524 -3531 0
-3524 -3532 0
-3524 -3533 0
-3524 -3534 0
-3524 -3535 0
-3524 -3536 0
-3525 -3526 0
-3525 -3527 0
-3525 -3528 0
-3525 -3529 0
-3525 -3530 0
-3525 -3531 0
-3525 -3532 0
-3525 -3533 0
-3525 -3534 0
-3525 -3535 0
-3525 -3536 0
-3526 -3527 0
-3526 -3528 0
-3526 -3529 0
-3526 -3530 0
-3526 -3531 0
-3526 -3532 0
-3526 -3533 0
-3526 -3534 0
-3526 -3535 0
-3526 -3536 0
-3527 -3528 0
-3527 -3529 0
-3527 -3530 0
-3527 -3531 0
-3527 -3532 0
-3527 -3533 0
-3527 -3534 0
-3527 -3535 0
-3527 -3536 0
-3528 -3529 0
-3528 -3530 0
-3528 -3531 0
-3528 -3532 0
-3528 -3533 0
-3528 -3534 0
-3528 -3535 0
-3528 -3536 0
-3529 -3530 0
-3529 -3531 0
-3529 -3532 0
-3529 -3533 0
-3529 -3534 0
-3529 -3535 0
-3529 -3536 0
-3530 -3531 0
-3530 -3532 0
-3530 -3533 0
-3530 -3534 0
-3530 -3535 0
-3530 -3536 0
-3531 -3532 0
-3531 -3533 0
-3531 -3534 0
-3531 -3535 0
-3531 -3536 0
-3532 -3533 0
-3532 -3534 0
-3532 -3535 0
-3532 -3536 0
-3533 -3534 0
-3533 -3535 0
-3533 -3536 0
-3534 -3535 0
-3534 -3536 0
-3535 -3536 0
3537 3538 3539 3540 3541 3542 3543 3544 3545 3546 3547 3548 3549 3550 3551 3552 0
-3537 -3538 0
-3537 -3539 0
-3537 -3540 0
-3537 -3541 0
-3537 -3542 0
-3537 -3543 0
-3537 -3544 0
-3537 -3545 0
-3537 -3546 0
-3537 -3547 0
-3537 -3548 0
-3537 -3549 0
-3537 -3550 0
-3537 -3551 0
-3537 -3552 0
-3538 -3539 0
-3538 -3540 0
-3538 -3541 0
-3538 -3542 0
-3538 -3543 0
-3538 -3544 0
-3538 -3545 0
-3538 -3546 0
-3538 -3547 0
-3538 -3548 0
-3538 -3549 0
-3538 -3550 0
-3538 -3551 0
-3538 -3552 0
-3539 -3540 0
-3539 -3541 0
-3539 -3542 0
-3539 -3543 0
-3539 -3544 0
-3539 -3545 0
-3539 -3546 0
-3539 -3547 0
-3539 -3548 0
-3539 -3549 0
-3539 -3550 0
-3539 -3551 0
-3539 -3552 0
-3540 -3541 0
-3540 -3542 0
-3540 -3543 0
-3540 -3544 0
-3540 -3545 0
-3540 -3546 0
-3540 -3547 0
-3540 -3548 0
-3540 -3549 0
-3540 -3550 0
-3540 -3551 0
-3540 -3552 0
-3541 -3542 0
-3541 -3543 0
-3541 -3544 0
-3541 -3545 0
-3541 -3546 0
-3541 -3547 0
-3541 -3548 0
-3541 -3549 0
-3541 -3550 0
-3541 -3551 0
-3541 -3552 0
-3542 -3543 0
-3542 -3544 0
-3542 -3545 0
-3542 -3546 0
-3542 -3547 0
-3542 -3548 0
-3542 -3549 0
-3542 -3550 0
-3542 -3551 0
-3542 -3552 0
-3543 -3544 0
-3543 -3545 0
-3543 -3546 0
-3543 -3547 0
-3543 -3548 0
-3543 -3549 0
-3543 -3550 0
-3543 -3551 0
-3543 -3552 0
-3544 -3545 0
-3544 -3546 0
-3544 -3547 0
-3544 -3548 0
-3544 -3549 0
-3544 -3550 0
-3544 -3551 0
-3544 -3552 0
-3545 -3546 0
-3545 -3547 0
-3545 -3548 0
-3545 -3549 0
-3545 -3550 0
-3545 -3551 0
-3545 -3552 0
-3546 -3547 0
-3546 -3548 0
-3546 -3549 0
-3546 -3550 0
-3546 -3551 0
-3546 -3552 0
-3547 -3548 0
-3547 -3549 0
-3547 -3550 0
-3547 -3551 0
-3547 -3552 0
-3548 -3549 0
-3548 -3550 0
-3548 -3551 0
-3548 -3552 0
-3549 -3550 0
-3549 -3551 0
-3549 -3552 0
-3550 -3551 0
-3550 -3552 0
-3551 -3552 0
3553 3554 3555 3556 3557 3558 3559 3560 3561 3562 3563 3564 3565 3566 3567 3568 0
-3553 -3554 0
-3553 -3555 0
-3553 -3556 0
-3553 -3557 0
-3553 -3558 0
-3553 -3559 0
-3553 -3560 0
-3553 -3561 0
-3553 -3562 0
-3553 -3563 0
-3553 -3564 0
-3553 -3565 0
-3553 -3566 0
-3553 -3567 0
-3553 -3568 0
-3554 -3555 0
-3554 -3556 0
-3554 -3557 0
-3554 -3558 0
-3554 -3559 0
-3554 -3560 0
-3554 -3561 0
-3554 -3562 0
-3554 -3563 0
-3554 -3564 0
-3554 -3565 0
-3554 -3566 0
-3554 -3567 0
-3554 -3568 0
-3555 -3556 0
-3555 -3557 0
-3555 -3558 0
-3555 -3559 0
-3555 -3560 0
-3555 -3561 0
-3555 -3562 0
-3555 -3563 0
-3555 -3564 0
-3555 -3565 0
-3555 -3566 0
-3555 -3567 0
-3555 -3568 0
-3556 -3557 0
-3556 -3558 0
-3556 -3559 0
-3556 -3560 0
-3556 -3561 0
-3556 -3562 0
-3556 -3563 0
-3556 -3564 0
-3556 -3565 0
-3556 -3566 0
-3556 -3567 0
-3556 -3568 0
-3557 -3558 0
-3557 -3559 0
-3557 -3560 0
-3557 -3561 0
-3557 -3562 0
-3557 -3563 0
-3557 -3564 0
-3557 -3565 0
-3557 -3566 0
-3557 -3567 0
-3557 -3568 0
-3558 -3559 0
-3558 -3560 0
-3558 -3561 0
-3558 -3562 0
-3558 -3563 0
-3558 -3564 0
-3558 -3565 0
-3558 -3566 0
-3558 -3567 0
-3558 -3568 0
-3559 -3560 0
-3559 -3561 0
-3559 -3562 0
-3559 -3563 0
-3559 -3564 0
-3559 -3565 0
-3559 -3566 0
-3559 -3567 0
-3559 -3568 0
-3560 -3561 0
-3560 -3562 0
-3560 -3563 0
-3560 -3564 0
-3560 -3565 0
-3560 -3566 0
-3560 -3567 0
-3560 -3568 0
-3561 -3562 0
-3561 -3563 0
-3561 -3564 0
-3561 -3565 0
-3561 -3566 0
-3561 -3567 0
-3561 -3568 0
-3562 -3563 0
-3562 -3564 0
-3562 -3565 0
-3562 -3566 0
-3562 -3567 0
-3562 -3568 0
-3563 -3564 0
-3563 -3565 0
-3563 -3566 0
-3563 -3567 0
-3563 -3568 0
-3564 -3565 0
-3564 -3566 0
-3564 -3567 0
-3564 -3568 0
-3565 -3566 0
-3565 -3567 0
-3565 -3568 0
-3566 -3567 0
-3566 -3568 0
-3567 -3568 0
3569 3570 3571 3572 3573 3574 3575 3576 3577 3578 3579 3580 3581 3582 3583 3584 0
-3569 -3570 0
-3569 -3571 0
-3569 -3572 0
-3569 -3573 0
-3569 -3574 0
-3569 -3575 0
-3569 -3576 0
-3569 -3577 0
-3569 -3578 0
-3569 -3579 0
-3569 -3580 0
-3569 -3581 0
-3569 -3582 0
-3569 -3583 0
-3569 -3584 0
-3570 -3571 0
-3570 -3572 0
-3570 -3573 0
-3570 -3574 0
-3570 -3575 0
-3570 -3576 0
-3570 -3577 0
-3570 -3578 0
-3570 -3579 0
-3570 -3580 0
-3570 -3581 0
-3570 -3582 0
-3570 -3583 0
-3570 -3584 0
-3571 -3572 0
-3571 -3573 0
-3571 -3574 0
-3571 -3575 0
-3571 -3576 0
-3571 -3577 0
-3571 -3578 0
-3571 -3579 0
-3571 -3580 0
-3571 -3581 0
-3571 -3582 0
-3571 -3583 0
-3571 -3584 0
-3572 -3573 0
-3572 -3574 0
-3572 -3575 0
-3572 -3576 0
-3572 -3577 0
-3572 -3578 0
-3572 -3579 0
-3572 -3580 0
-3572 -3581 0
-3572 -3582 0
-3572 -3583 0
-3572 -3584 0
-3573 -3574 0
-3573 -3575 0
-3573 -3576 0
-3573 -3577 0
-3573 -3578 0
-3573 -3579 0
-3573 -3580 0
-3573 -3581 0
-3573 -3582 0
-3573 -3583 0
-3573 -3584 0
-3574 -3575 0
-3574 -3576 0
-3574 -3577 0
-3574 -3578 0
-3574 -3579 0
-3574 -3580 0
-3574 -3581 0
-3574 -3582 0
-3574 -3583 0
-3574 -3584 0
-3575 -3576 0
-3575 -3577 0
-3575 -3578 0
-3575 -3579 0
-3575 -3580 0
-3575 -3581 0
-3575 -3582 0
-3575 -3583 0
-3575 -3584 0
-3576 -3577 0
-3576 -3578 0
-3576 -3579 0
-3576 -3580 0
-3576 -3581 0
-3576 -3582 0
-3576 -3583 0
-3576 -3584 0
-3577 -3578 0
-3577 -3579 0
-3577 -3580 0
-3577 -3581 0
-3577 -3582 0
-3577 -3583 0
-3577 -3584 0
-3578 -3579 0
-3578 -3580 0
-3578 -3581 0
-3578 -3582 0
-3578 -3583 0
-3578 -3584 0
-3579 -3580 0
-3579 -3581 0
-3579 -3582 0
-3579 -3583 0
-3579 -3584 0
-3580 -3581 0
-3580 -3582 0
-3580 -3583 0
-3580 -3584 0
-3581 -3582 0
-3581 -3583 0
-3581 -3584 0
-3582 -3583 0
-3582 -3584 0
-3583 -3584 0
3585 3586 3587 3588 3589 3590 3591 3592 3593 3594 3595 3596 3597 3598 3599 3600 0
-3585 -3586 0
-3585 -3587 0
-3585 -3588 0
-3585 -3589 0
-3585 -3590 0
-3585 -3591 0
-3585 -3592 0
-3585 -3593 0
-3585 -3594 0
-3585 -3595 0
-3585 -3596 0
-3585 -3597 0
-3585 -3598 0
-3585 -3599 0
-3585 -3600 0
-3586 -3587 0
-3586 -3588 0
-3586 -3589 0
-3586 -3590 0
-3586 -3591 0
-3586 -3592 0
-3586 -3593 0
-3586 -3594 0
-3586 -3595 0
-3586 -3596 0
-3586 -3597 0
-3586 -3598 0
-3586 -3599 0
-3586 -3600 0
-3587 -3588 0
-3587 -3589 0
-3587 -3590 0
-3587 -3591 0
-3587 -3592 0
-3587 -3593 0
-3587 -3594 0
-3587 -3595 0
-3587 -3596 0
-3587 -3597 0
-3587 -3598 0
-3587 -3599 0
-3587 -3600 0
-3588 -3589 0
-3588 -3590 0
-3588 -3591 0
-3588 -3592 0
-3588 -3593 0
-3588 -3594 0
-3588 -3595 0
-3588 -3596 0
-3588 -3597 0
-3588 -3598 0
-3588 -3599 0
-3588 -3600 0
-3589 -3590 0
-3589 -3591 0
-3589 -3592 0
-3589 -3593 0
-3589 -3594 0
-3589 -3595 0
-3589 -3596 0
-3589 -3597 0
-3589 -3598 0
-3589 -3599 0
-3589 -3600 0
-3590 -3591 0
-3590 -3592 0
-3590 -3593 0
-3590 -3594 0
-3590 -3595 0
-3590 -3596 0
-3590 -3597 0
-3590 -3598 0
-3590 -3599 0
-3590 -3600 0
-3591 -3592 0
-3591 -3593 0
-3591 -3594 0
-3591 -3595 0
-3591 -3596 0
-3591 -3597 0
-3591 -3598 0
-3591 -3599 0
-3591 -3600 0
-3592 -3593 0
-3592 -3594 0
-3592 -3595 0
-3592 -3596 0
-3592 -3597 0
-3592 -3598 0
-3592 -3599 0
-3592 -3600 0
-3593 -3594 0
-3593 -3595 0
-3593 -3596 0
-3593 -3597 0
-3593 -3598 0
-3593 -3599 0
-3593 -3600 0
-3594 -3595 0
-3594 -3596 0
-3594 -3597 0
-3594 -3598 0
-3594 -3599 0
-3594 -3600 0
-3595 -3596 0
-3595 -3597 0
-3595 -3598 0
-3595 -3599 0
-3595 -3600 0
-3596 -3597 0
-3596 -3598 0
-3596 -3599 0
-3596 -3600 0
-3597 -3598 0
-3597 -3599 0
-3597 -3600 0
-3598 -3599 0
-3598 -3600 0
-3599 -3600 0
3601 3602 3603 3604 3605 3606 3607 3608 3609 3610 3611 3612 3613 3614 3615 3616 0
-3601 -3602 0
-3601 -3603 0
-3601 -3604 0
-3601 -3605 0
-3601 -3606 0
-3601 -3607 0
-3601 -3608 0
-3601 -3609 0
-3601 -3610 0
-3601 -3611 0
-3601 -3612 0
-3601 -3613 0
-3601 -3614 0
-3601 -3615 0
-3601 -3616 0
-3602 -3603 0
-3602 -3604 0
-3602 -3605 0
-3602 -3606 0
-3602 -3607 0
-3602 -3608 0
-3602 -3609 0
-3602 -3610 0
-3602 -3611 0
-3602 -3612 0
-3602 -3613 0
-3602 -3614 0
-3602 -3615 0
-3602 -3616 0
-3603 -3604 0
-3603 -3605 0
-3603 -3606 0
-3603 -3607 0
-3603 -3608 0
-3603 -3609 0
-3603 -3610 0
-3603 -3611 0
-3603 -3612 0
-3603 -3613 0
-3603 -3614 0
-3603 -3615 0
-3603 -3616 0
-3604 -3605 0
-3604 -3606 0
-3604 -3607 0
-3604 -3608 0
-3604 -3609 0
-3604 -3610 0
-3604 -3611 0
-3604 -3612 0
-3604 -3613 0
-3604 -3614 0
-3604 -3615 0
-3604 -3616 0
-3605 -3606 0
-3605 -3607 0
-3605 -3608 0
-3605 -3609 0
-3605 -3610 0
-3605 -3611 0
-3605 -3612 0
-3605 -3613 0
-3605 -3614 0
-3605 -3615 0
-3605 -3616 0
-3606 -3607 0
-3606 -3608 0
-3606 -3609 0
-3606 -3610 0
-3606 -3611 0
-3606 -3612 0
-3606 -3613 0
-3606 -3614 0
-3606 -3615 0
-3606 -3616 0
-3607 -3608 0
-3607 -3609 0
-3607 -3610 0
-3607 -3611 0
-3607 -3612 0
-3607 -3613 0
-3607 -3614 0
-3607 -3615 0
-3607 -3616 0
-3608 -3609 0
-3608 -3610 0
-3608 -3611 0
-3608 -3612 0
-3608 -3613 0
-3608 -3614 0
-3608 -3615 0
-3608 -3616 0
-3609 -3610 0
-3609 -3611 0
-3609 -3612 0
-3609 -3613 0
-3609 -3614 0
-3609 -3615 0
-3609 -3616 0
-3610 -3611 0
-3610 -3612 0
-3610 -3613 0
-3610 -3614 0
-3610 -3615 0
-3610 -3616 0
-3611 -3612 0
-3611 -3613 0
-3611 -3614 0
-3611 -3615 0
-3611 -3616 0
-3612 -3613 0
-3612 -3614 0
-3612 -3615 0
-3612 -3616 0
-3613 -3614 0
-3613 -3615 0
-3613 -3616 0
-3614 -3615 0
-3614 -3616 0
-3615 -3616 0
3617 3618 3619 3620 3621 3622 3623 3624 3625 3626 3627 3628 3629 3630 3631 3632 0
-3617 -3618 0
-3617 -3619 0
-3617 -3620 0
-3617 -3621 0
-3617 -3622 0
-3617 -3623 0
-3617 -3624 0
-3617 -3625 0
-3617 -3626 0
-3617 -3627 0
-3617 -3628 0
-3617 -3629 0
-3617 -3630 0
-3617 -3631 0
-3617 -3632 0
-3618 -3619 0
-3618 -3620 0
-3618 -3621 0
-3618 -3622 0
-3618 -3623 0
-3618 -3624 0
-3618 -3625 0
-3618 -3626 0
-3618 -3627 0
-3618 -3628 0
-3618 -3629 0
-3618 -3630 0
-3618 -3631 0
-3618 -3632 0
-3619 -3620 0
-3619 -3621 0
-3619 -3622 0
-3619 -3623 0
-3619 -3624 0
-3619 -3625 0
-3619 -3626 0
-3619 -3627 0
-3619 -3628 0
-3619 -3629 0
-3619 -3630 0
-3619 -3631 0
-3619 -3632 0
-3620 -3621 0
-3620 -3622 0
-3620 -3623 0
-3620 -3624 0
-3620 -3625 0
-3620 -3626 0
-3620 -3627 0
-3620 -3628 0
-3620 -3629 0
-3620 -3630 0
-3620 -3631 0
-3620 -3632 0
-3621 -3622 0
-3621 -3623 0
-3621 -3624 0
-3621 -3625 0
-3621 -3626 0
-3621 -3627 0
-3621 -3628 0
-3621 -3629 0
-3621 -3630 0
-3621 -3631 0
-3621 -3632 0
-3622 -3623 0
-3622 -3624 0
-3622 -3625 0
-3622 -3626 0
-3622 -3627 0
-3622 -3628 0
-3622 -3629 0
-3622 -3630 0
-3622 -3631 0
-3622 -3632 0
-3623 -3624 0
-3623 -3625 0
-3623 -3626 0
-3623 -3627 0
-3623 -3628 0
-3623 -3629 0
-3623 -3630 0
-3623 -3631 0
-3623 -3632 0
-3624 -3625 0
-3624 -3626 0
-3624 -3627 0
-3624 -3628 0
-3624 -3629 0
-3624 -3630 0
-3624 -3631 0
-3624 -3632 0
-3625 -3626 0
-3625 -3627 0
-3625 -3628 0
-3625 -3629 0
-3625 -3630 0
-3625 -3631 0
-3625 -3632 0
-3626 -3627 0
-3626 -3628 0
-3626 -3629 0
-3626 -3630 0
-3626 -3631 0
-3626 -3632 0
-3627 -3628 0
-3627 -3629 0
-3627 -3630 0
-3627 -3631 0
-3627 -3632 0
-3628 -3629 0
-3628 -3630 0
-3628 -3631 0
-3628 -3632 0
-3629 -3630 0
-3629 -3631 0
-3629 -3632 0
-3630 -3631 0
-3630 -3632 0
-3631 -3632 0
3633 3634 3635 3636 3637 3638 3639 3640 3641 3642 3643 3644 3645 3646 3647 3648 0
-3633 -3634 0
-3633 -3635 0
-3633 -3636 0
-3633 -3637 0
-3633 -3638 0
-3633 -3639 0
-3633 -3640 0
-3633 -3641 0
-3633 -3642 0
-3633 -3643 0
-3633 -3644 0
-3633 -3645 0
-3633 -3646 0
-3633 -3647 0
-3633 -3648 0
-3634 -3635 0
-3634 -3636 0
-3634 -3637 0
-3634 -3638 0
-3634 -3639 0
-3634 -3640 0
-3634 -3641 0
-3634 -3642 0
-3634 -3643 0
-3634 -3644 0
-3634 -3645 0
-3634 -3646 0
-3634 -3647 0
-3634 -3648 0
-3635 -3636 0
-3635 -3637 0
-3635 -3638 0
-3635 -3639 0
-3635 -3640 0
-3635 -3641 0
-3635 -3642 0
-3635 -3643 0
-3635 -3644 0
-3635 -3645 0
-3635 -3646 0
-3635 -3647 0
-3635 -3648 0
-3636 -3637 0
-3636 -3638 0
-3636 -3639 0
-3636 -3640 0
-3636 -3641 0
-3636 -3642 0
-3636 -3643 0
-3636 -3644 0
-3636 -3645 0
-3636 -3646 0
-3636 -3647 0
-3636 -3648 0
-3637 -3638 0
-3637 -3639 0
-3637 -3640 0
-3637 -3641 0
-3637 -3642 0
-3637 -3643 0
-3637 -3644 0
-3637 -3645 0
-3637 -3646 0
-3637 -3647 0
-3637 -3648 0
-3638 -3639 0
-3638 -3640 0
-3638 -3641 0
-3638 -3642 0
-3638 -3643 0
-3638 -3644 0
-3638 -3645 0
-3638 -3646 0
-3638 -3647 0
-3638 -3648 0
-3639 -3640 0
-3639 -3641 0
-3639 -3642 0
-3639 -3643 0
-3639 -3644 0
-3639 -3645 0
-3639 -3646 0
-3639 -3647 0
-3639 -3648 0
-3640 -3641 0
-3640 -3642 0
-3640 -3643 0
-3640 -3644 0
-3640 -3645 0
-3640 -3646 0
-3640 -3647 0
-3640 -3648 0
-3641 -3642 0
-3641 -3643 0
-3641 -3644 0
-3641 -3645 0
-3641 -3646 0
-3641 -3647 0
-3641 -3648 0
-3642 -3643 0
-3642 -3644 0
-3642 -3645 0
-3642 -3646 0
-3642 -3647 0
-3642 -3648 0
-3643 -3644 0
-3643 -3645 0
-3643 -3646 0
-3643 -3647 0
-3643 -3648 0
-3644 -3645 0
-3644 -3646 0
-3644 -3647 0
-3644 -3648 0
-3645 -3646 0
-3645 -3647 0
-3645 -3648 0
-3646 -3647 0
-3646 -3648 0
-3647 -3648 0
3649 3650 3651 3652 3653 3654 3655 3656 3657 3658 3659 3660 3661 3662 3663 3664 0
-3649 -3650 0
-3649 -3651 0
-3649 -3652 0
-3649 -3653 0
-3649 -3654 0
-3649 -3655 0
-3649 -3656 0
-3649 -3657 0
-3649 -3658 0
-3649 -3659 0
-3649 -3660 0
-3649 -3661 0
-3649 -3662 0
-3649 -3663 0
-3649 -3664 0
-3650 -3651 0
-3650 -3652 0
-3650 -3653 0
-3650 -3654 0
-3650 -3655 0
-3650 -3656 0
-3650 -3657 0
-3650 -3658 0
-3650 -3659 0
-3650 -3660 0
-3650 -3661 0
-3650 -3662 0
-3650 -3663 0
-3650 -3664 0
-3651 -3652 0
-3651 -3653 0
-3651 -3654 0
-3651 -3655 0
-3651 -3656 0
-3651 -3657 0
-3651 -3658 0
-3651 -3659 0
-3651 -3660 0
-3651 -3661 0
-3651 -3662 0
-3651 -3663 0
-3651 -3664 0
-3652 -3653 0
-3652 -3654 0
-3652 -3655 0
-3652 -3656 0
-3652 -3657 0
-3652 -3658 0
-3652 -3659 0
-3652 -3660 0
-3652 -3661 0
-3652 -3662 0
-3652 -3663 0
-3652 -3664 0
-3653 -3654 0
-3653 -3655 0
-3653 -3656 0
-3653 -3657 0
-3653 -3658 0
-3653 -3659 0
-3653 -3660 0
-3653 -3661 0
-3653 -3662 0
-3653 -3663 0
-3653 -3664 0
-3654 -3655 0
-3654 -3656 0
-3654 -3657 0
-3654 -3658 0
-3654 -3659 0
-3654 -3660 0
-3654 -3661 0
-3654 -3662 0
-3654 -3663 0
-3654 -3664 0
-3655 -3656 0
-3655 -3657 0
-3655 -3658 0
-3655 -3659 0
-3655 -3660 0
-3655 -3661 0
-3655 -3662 0
-3655 -3663 0
-3655 -3664 0
-3656 -3657 0
-3656 -3658 0
-3656 -3659 0
-3656 -3660 0
-3656 -3661 0
-3656 -3662 0
-3656 -3663 0
-3656 -3664 0
-3657 -3658 0
-3657 -3659 0
-3657 -3660 0
-3657 -3661 0
-3657 -3662 0
-3657 -3663 0
-3657 -3664 0
-3658 -3659 0
-3658 -3660 0
-3658 -3661 0
-3658 -3662 0
-3658 -3663 0
-3658 -3664 0
-3659 -3660 0
-3659 -3661 0
-3659 -3662 0
-3659 -3663 0
-3659 -3664 0
-3660 -3661 0
-3660 -3662 0
-3660 -3663 0
-3660 -3664 0
-3661 -3662 0
-3661 -3663 0
-3661 -3664 0
-3662 -3663 0
-3662 -3664 0
-3663 -3664 0
3665 3666 3667 3668 3669 3670 3671 3672 3673 3674 3675 3676 3677 3678 3679 3680 0
-3665 -3666 0
-3665 -3667 0
-3665 -3668 0
-3665 -3669 0
-3665 -3670 0
-3665 -3671 0
-3665 -3672 0
-3665 -3673 0
-3665 -3674 0
-3665 -3675 0
-3665 -3676 0
-3665 -3677 0
-3665 -3678 0
-3665 -3679 0
-3665 -3680 0
-3666 -3667 0
-3666 -3668 0
-3666 -3669 0
-3666 -3670 0
-3666 -3671 0
-3666 -3672 0
-3666 -3673 0
-3666 -3674 0
-3666 -3675 0
-3666 -3676 0
-3666 -3677 0
-3666 -3678 0
-3666 -3679 0
-3666 -3680 0
-3667 -3668 0
-3667 -3669 0
-3667 -3670 0
-3667 -3671 0
-3667 -3672 0
-3667 -3673 0
-3667 -3674 0
-3667 -3675 0
-3667 -3676 0
-3667 -3677 0
-3667 -3678 0
-3667 -3679 0
-3667 -3680 0
-3668 -3669 0
-3668 -3670 0
-3668 -3671 0
-3668 -3672 0
-3668 -3673 0
-3668 -3674 0
-3668 -3675 0
-3668 -3676 0
-3668 -3677 0
-3668 -3678 0
-3668 -3679 0
-3668 -3680 0
-3669 -3670 0
-3669 -3671 0
-3669 -3672 0
-3669 -3673 0
-3669 -3674 0
-3669 -3675 0
-3669 -3676 0
-3669 -3677 0
-3669 -3678 0
-3669 -3679 0
-3669 -3680 0
-3670 -3671 0
-3670 -3672 0
-3670 -3673 0
-3670 -3674 0
-3670 -3675 0
-3670 -3676 0
-3670 -3677 0
-3670 -3678 0
-3670 -3679 0
-3670 -3680 0
-3671 -3672 0
-3671 -3673 0
-3671 -3674 0
-3671 -3675 0
-3671 -3676 0
-3671 -3677 0
-3671 -3678 0
-3671 -3679 0
-3671 -3680 0
-3672 -3673 0
-3672 -3674 0
-3672 -3675 0
-3672 -3676 0
-3672 -3677 0
-3672 -3678 0
-3672 -3679 0
-3672 -3680 0
-3673 -3674 0
-3673 -3675 0
-3673 -3676 0
-3673 -3677 0
-3673 -3678 0
-3673 -3679 0
-3673 -3680 0
-3674 -3675 0
-3674 -3676 0
-3674 -3677 0
-3674 -3678 0
-3674 -3679 0
-3674 -3680 0
-3675 -3676 0
-3675 -3677 0
-3675 -3678 0
-3675 -3679 0
-3675 -3680 0
-3676 -3677 0
-3676 -3678 0
-3676 -3679 0
-3676 -3680 0
-3677 -3678 0
-3677 -3679 0
-3677 -3680 0
-3678 -3679 0
-3678 -3680 0
-3679 -3680 0
3681 3682 3683 3684 3685 3686 3687 3688 3689 3690 3691 3692 3693 3694 3695 3696 0
-3681 -3682 0
-3681 -3683 0
-3681 -3684 0
-3681 -3685 0
-3681 -3686 0
-3681 -3687 0
-3681 -3688 0
-3681 -3689 0
-3681 -3690 0
-3681 -3691 0
-3681 -3692 0
-3681 -3693 0
-3681 -3694 0
-3681 -3695 0
-3681 -3696 0
-3682 -3683 0
-3682 -3684 0
-3682 -3685 0
-3682 -3686 0
-3682 -3687 0
-3682 -3688 0
-3682 -3689 0
-3682 -3690 0
-3682 -3691 0
-3682 -3692 0
-3682 -3693 0
-3682 -3694 0
-3682 -3695 0
-3682 -3696 0
-3683 -3684 0
-3683 -3685 0
-3683 -3686 0
-3683 -3687 0
-3683 -3688 0
-3683 -3689 0
-3683 -3690 0
-3683 -3691 0
-3683 -3692 0
-3683 -3693 0
-3683 -3694 0
-3683 -3695 0
-3683 -3696 0
-3684 -3685 0
-3684 -3686 0
-3684 -3687 0
-3684 -3688 0
-3684 -3689 0
-3684 -3690 0
-3684 -3691 0
-3684 -3692 0
-3684 -3693 0
-3684 -3694 0
-3684 -3695 0
-3684 -3696 0
-3685 -3686 0
-3685 -3687 0
-3685 -3688 0
-3685 -3689 0
-3685 -3690 0
-3685 -3691 0
-3685 -3692 0
-3685 -3693 0
-3685 -3694 0
-3685 -3695 0
-3685 -3696 0
-3686 -3687 0
-3686 -3688 0
-3686 -3689 0
-3686 -3690 0
-3686 -3691 0
-3686 -3692 0
-3686 -3693 0
-3686 -3694 0
-3686 -3695 0
-3686 -3696 0
-3687 -3688 0
-3687 -3689 0
-3687 -3690 0
-3687 -3691 0
-3687 -3692 0
-3687 -3693 0
-3687 -3694 0
-3687 -3695 0
-3687 -3696 0
-3688 -3689 0
-3688 -3690 0
-3688 -3691 0
-3688 -3692 0
-3688 -3693 0
-3688 -3694 0
-3688 -3695 0
-3688 -3696 0
-3689 -3690 0
-3689 -3691 0
-3689 -3692 0
-3689 -3693 0
-3689 -3694 0
-3689 -3695 0
-3689 -3696 0
-3690 -3691 0
-3690 -3692 0
-3690 -3693 0
-3690 -3694 0
-3690 -3695 0
-3690 -3696 0
-3691 -3692 0
-3691 -3693 0
-3691 -3694 0
-3691 -3695 0
-3691 -3696 0
-3692 -3693 0
-3692 -3694 0
-3692 -3695 0
-3692 -3696 0
-3693 -3694 0
-3693 -3695 0
-3693 -3696 0
-3694 -3695 0
-3694 -3696 0
-3695 -3696 0
3697 3698 3699 3700 3701 3702 3703 3704 3705 3706 3707 3708 3709 3710 3711 3712 0
-3697 -3698 0
-3697 -3699 0
-3697 -3700 0
-3697 -3701 0
-3697 -3702 0
-3697 -3703 0
-3697 -3704 0
-3697 -3705 0
-3697 -3706 0
-3697 -3707 0
-3697 -3708 0
-3697 -3709 0
-3697 -3710 0
-3697 -3711 0
-3697 -3712 0
-3698 -3699 0
-3698 -3700 0
-3698 -3701 0
-3698 -3702 0
-3698 -3703 0
-3698 -3704 0
-3698 -3705 0
-3698 -3706 0
-3698 -3707 0
-3698 -3708 0
-3698 -3709 0
-3698 -3710 0
-3698 -3711 0
-3698 -3712 0
-3699 -3700 0
-3699 -3701 0
-3699 -3702 0
-3699 -3703 0
-3699 -3704 0
-3699 -3705 0
-3699 -3706 0
-3699 -3707 0
-3699 -3708 0
-3699 -3709 0
-3699 -3710 0
-3699 -3711 0
-3699 -3712 0
-3700 -3701 0
-3700 -3702 0
-3700 -3703 0
-3700 -3704 0
-3700 -3705 0
-3700 -3706 0
-3700 -3707 0
-3700 -3708 0
-3700 -3709 0
-3700 -3710 0
-3700 -3711 0
-3700 -3712 0
-3701 -3702 0
-3701 -3703 0
-3701 -3704 0
-3701 -3705 0
-3701 -3706 0
-3701 -3707 0
-3701 -3708 0
-3701 -3709 0
-3701 -3710 0
-3701 -3711 0
-3701 -3712 0
-3702 -3703 0
-3702 -3704 0
-3702 -3705 0
-3702 -3706 0
-3702 -3707 0
-3702 -3708 0
-3702 -3709 0
-3702 -3710 0
-3702 -3711 0
-3702 -3712 0
-3703 -3704 0
-3703 -3705 0
-3703 -3706 0
-3703 -3707 0
-3703 -3708 0
-3703 -3709 0
-3703 -3710 0
-3703 -3711 0
-3703 -3712 0
-3704 -3705 0
-3704 -3706 0
-3704 -3707 0
-3704 -3708 0
-3704 -3709 0
-3704 -3710 0
-3704 -3711 0
-3704 -3712 0
-3705 -3706 0
-3705 -3707 0
-3705 -3708 0
-3705 -3709 0
-3705 -3710 0
-3705 -3711 0
-3705 -3712 0
-3706 -3707 0
-3706 -3708 0
-3706 -3709 0
-3706 -3710 0
-3706 -3711 0
-3706 -3712 0
-3707 -3708 0
-3707 -3709 0
-3707 -3710 0
-3707 -3711 0
-3707 -3712 0
-3708 -3709 0
-3708 -3710 0
-3708 -3711 0
-3708 -3712 0
-3709 -3710 0
-3709 -3711 0
-3709 -3712 0
-3710 -3711 0
-3710 -3712 0
-3711 -3712 0
3713 3714 3715 3716 3717 3718 3719 3720 3721 3722 3723 3724 3725 3726 3727 3728 0
-3713 -3714 0
-3713 -3715 0
-3713 -3716 0
-3713 -3717 0
-3713 -3718 0
-3713 -3719 0
-3713 -3720 0
-3713 -3721 0
-3713 -3722 0
-3713 -3723 0
-3713 -3724 0
-3713 -3725 0
-3713 -3726 0
-3713 -3727 0
-3713 -3728 0
-3714 -3715 0
-3714 -3716 0
-3714 -3717 0
-3714 -3718 0
-3714 -3719 0
-3714 -3720 0
-3714 -3721 0
-3714 -3722 0
-3714 -3723 0
-3714 -3724 0
-3714 -3725 0
-3714 -3726 0
-3714 -3727 0
-3714 -3728 0
-3715 -3716 0
-3715 -3717 0
-3715 -3718 0
-3715 -3719 0
-3715 -3720 0
-3715 -3721 0
-3715 -3722 0
-3715 -3723 0
-3715 -3724 0
-3715 -3725 0
-3715 -3726 0
-3715 -3727 0
-3715 -3728 0
-3716 -3717 0
-3716 -3718 0
-3716 -3719 0
-3716 -3720 0
-3716 -3721 0
-3716 -3722 0
-3716 -3723 0
-3716 -3724 0
-3716 -3725 0
-3716 -3726 0
-3716 -3727 0
-3716 -3728 0
-3717 -3718 0
-3717 -3719 0
-3717 -3720 0
-3717 -3721 0
-3717 -3722 0
-3717 -3723 0
-3717 -3724 0
-3717 -3725 0
-3717 -3726 0
-3717 -3727 0
-3717 -3728 0
-3718 -3719 0
-3718 -3720 0
-3718 -3721 0
-3718 -3722 0
-3718 -3723 0
-3718 -3724 0
-3718 -3725 0
-3718 -3726 0
-3718 -3727 0
-3718 -3728 0
-3719 -3720 0
-3719 -3721 0
-3719 -3722 0
-3719 -3723 0
-3719 -3724 0
-3719 -3725 0
-3719 -3726 0
-3719 -3727 0
-3719 -3728 0
-3720 -3721 0
-3720 -3722 0
-3720 -3723 0
-3720 -3724 0
-3720 -3725 0
-3720 -3726 0
-3720 -3727 0
-3720 -3728 0
-3721 -3722 0
-3721 -3723 0
-3721 -3724 0
-3721 -3725 0
-3721 -3726 0
-3721 -3727 0
-3721 -3728 0
-3722 -3723 0
-3722 -3724 0
-3722 -3725 0
-3722 -3726 0
-3722 -3727 0
-3722 -3728 0
-3723 -3724 0
-3723 -3725 0
-3723 -3726 0
-3723 -3727 0
-3723 -3728 0
-3724 -3725 0
-3724 -3726 0
-3724 -3727 0
-3724 -3728 0
-3725 -3726 0
-3725 -3727 0
-3725 -3728 0
-3726 -3727 0
-3726 -3728 0
-3727 -3728 0
3729 3730 3731 3732 3733 3734 3735 3736 3737 3738 3739 3740 3741 3742 3743 3744 0
-3729 -3730 0
-3729 -3731 0
-3729 -3732 0
-3729 -3733 0
-3729 -3734 0
-3729 -3735 0
-3729 -3736 0
-3729 -3737 0
-3729 -3738 0
-3729 -3739 0
-3729 -3740 0
-3729 -3741 0
-3729 -3742 0
-3729 -3743 0
-3729 -3744 0
-3730 -3731 0
-3730 -3732 0
-3730 -3733 0
-3730 -3734 0
-3730 -3735 0
-3730 -3736 0
-3730 -3737 0
-3730 -3738 0
-3730 -3739 0
-3730 -3740 0
-3730 -3741 0
-3730 -3742 0
-3730 -3743 0
-3730 -3744 0
-3731 -3732 0
-3731 -3733 0
-3731 -3734 0
-3731 -3735 0
-3731 -3736 0
-3731 -3737 0
-3731 -3738 0
-3731 -3739 0
-3731 -3740 0
-3731 -3741 0
-3731 -3742 0
-3731 -3743 0
-3731 -3744 0
-3732 -3733 0
-3732 -3734 0
-3732 -3735 0
-3732 -3736 0
-3732 -3737 0
-3732 -3738 0
-3732 -3739 0
-3732 -3740 0
-3732 -3741 0
-3732 -3742 0
-3732 -3743 0
-3732 -3744 0
-3733 -3734 0
-3733 -3735 0
-3733 -3736 0
-3733 -3737 0
-3733 -3738 0
-3733 -3739 0
-3733 -3740 0
-3733 -3741 0
-3733 -3742 0
-3733 -3743 0
-3733 -3744 0
-3734 -3735 0
-3734 -3736 0
-3734 -3737 0
-3734 -3738 0
-3734 -3739 0
-3734 -3740 0
-3734 -3741 0
-3734 -3742 0
-3734 -3743 0
-3734 -3744 0
-3735 -3736 0
-3735 -3737 0
-3735 -3738 0
-3735 -3739 0
-3735 -3740 0
-3735 -3741 0
-3735 -3742 0
-3735 -3743 0
-3735 -3744 0
-3736 -3737 0
-3736 -3738 0
-3736 -3739 0
-3736 -3740 0
-3736 -3741 0
-3736 -3742 0
-3736 -3743 0
-3736 -3744 0
-3737 -3738 0
-3737 -3739 0
-3737 -3740 0
-3737 -3741 0
-3737 -3742 0
-3737 -3743 0
-3737 -3744 0
-3738 -3739 0
-3738 -3740 0
-3738 -3741 0
-3738 -3742 0
-3738 -3743 0
-3738 -3744 0
-3739 -3740 0
-3739 -3741 0
-3739 -3742 0
-3739 -3743 0
-3739 -3744 0
-3740 -3741 0
-3740 -3742 0
-3740 -3743 0
-3740 -3744 0
-3741 -3742 0
-3741 -3743 0
-3741 -3744 0
-3742 -3743 0
-3742 -3744 0
-3743 -3744 0
3745 3746 3747 3748 3749 3750 3751 3752 3753 3754 3755 3756 3757 3758 3759 3760 0
-3745 -3746 0
-3745 -3747 0
-3745 -3748 0
-3745 -3749 0
-3745 -3750 0
-3745 -3751 0
-3745 -3752 0
-3745 -3753 0
-3745 -3754 0
-3745 -3755 0
-3745 -3756 0
-3745 -3757 0
-3745 -3758 0
-3745 -3759 0
-3745 -3760 0
-3746 -3747 0
-3746 -3748 0
-3746 -3749 0
-3746 -3750 0
-3746 -3751 0
-3746 -3752 0
-3746 -3753 0
-3746 -3754 0
-3746 -3755 0
-3746 -3756 0
-3746 -3757 0
-3746 -3758 0
-3746 -3759 0
-3746 -3760 0
-3747 -3748 0
-3747 -3749 0
-3747 -3750 0
-3747 -3751 0
-3747 -3752 0
-3747 -3753 0
-3747 -3754 0
-3747 -3755 0
-3747 -3756 0
-3747 -3757 0
-3747 -3758 0
-3747 -3759 0
-3747 -3760 0
-3748 -3749 0
-3748 -3750 0
-3748 -3751 0
-3748 -3752 0
-3748 -3753 0
-3748 -3754 0
-3748 -3755 0
-3748 -3756 0
-3748 -3757 0
-3748 -3758 0
-3748 -3759 0
-3748 -3760 0
-3749 -3750 0
-3749 -3751 0
-3749 -3752 0
-3749 -3753 0
-3749 -3754 0
-3749 -3755 0
-3749 -3756 0
-3749 -3757 0
-3749 -3758 0
-3749 -3759 0
-3749 -3760 0
-3750 -3751 0
-3750 -3752 0
-3750 -3753 0
-3750 -3754 0
-3750 -3755 0
-3750 -3756 0
-3750 -3757 0
-3750 -3758 0
-3750 -3759 0
-3750 -3760 0
-3751 -3752 0
-3751 -3753 0
-3751 -3754 0
-3751 -3755 0
-3751 -3756 0
-3751 -3757 0
-3751 -3758 0
-3751 -3759 0
-3751 -3760 0
-3752 -3753 0
-3752 -3754 0
-3752 -3755 0
-3752 -3756 0
-3752 -3757 0
-3752 -3758 0
-3752 -3759 0
-3752 -3760 0
-3753 -3754 0
-3753 -3755 0
-3753 -3756 0
-3753 -3757 0
-3753 -3758 0
-3753 -3759 0
-3753 -3760 0
-3754 -3755 0
-3754 -3756 0
-3754 -3757 0
-3754 -3758 0
-3754 -3759 0
-3754 -3760 0
-3755 -3756 0
-3755 -3757 0
-3755 -3758 0
-3755 -3759 0
-3755 -3760 0
-3756 -3757 0
-3756 -3758 0
-3756 -3759 0
-3756 -3760 0
-3757 -3758 0
-3757 -3759 0
-3757 -3760 0
-3758 -3759 0
-3758 -3760 0
-3759 -3760 0
3761 3762 3763 3764 3765 3766 3767 3768 3769 3770 3771 3772 3773 3774 3775 3776 0
-3761 -3762 0
-3761 -3763 0
-3761 -3764 0
-3761 -3765 0
-3761 -3766 0
-3761 -3767 0
-3761 -3768 0
-3761 -3769 0
-3761 -3770 0
-3761 -3771 0
-3761 -3772 0
-3761 -3773 0
-3761 -3774 0
-3761 -3775 0
-3761 -3776 0
-3762 -3763 0
-3762 -3764 0
-3762 -3765 0
-3762 -3766 0
-3762 -3767 0
-3762 -3768 0
-3762 -3769 0
-3762 -3770 0
-3762 -3771 0
-3762 -3772 0
-3762 -3773 0
-3762 -3774 0
-3762 -3775 0
-3762 -3776 0
-3763 -3764 0
-3763 -3765 0
-3763 -3766 0
-3763 -3767 0
-3763 -3768 0
-3763 -3769 0
-3763 -3770 0
-3763 -3771 0
-3763 -3772 0
-3763 -3773 0
-3763 -3774 0
-3763 -3775 0
-3763 -3776 0
-3764 -3765 0
-3764 -3766 0
-3764 -3767 0
-3764 -3768 0
-3764 -3769 0
-3764 -3770 0
-3764 -3771 0
-3764 -3772 0
-3764 -3773 0
-3764 -3774 0
-3764 -3775 0
-3764 -3776 0
-3765 -3766 0
-3765 -3767 0
-3765 -3768 0
-3765 -3769 0
-3765 -3770 0
-3765 -3771 0
-3765 -3772 0
-3765 -3773 0
-3765 -3774 0
-3765 -3775 0
-3765 -3776 0
-3766 -3767 0
-3766 -3768 0
-3766 -3769 0
-3766 -3770 0
-3766 -3771 0
-3766 -3772 0
-3766 -3773 0
-3766 -3774 0
-3766 -3775 0
-3766 -3776 0
-3767 -3768 0
-3767 -3769 0
-3767 -3770 0
-3767 -3771 0
-3767 -3772 0
-3767 -3773 0
-3767 -3774 0
-3767 -3775 0
-3767 -3776 0
-3768 -3769 0
-3768 -3770 0
-3768 -3771 0
-3768 -3772 0
-3768 -3773 0
-3768 -3774 0
-3768 -3775 0
-3768 -3776 0
-3769 -3770 0
-3769 -3771 0
-3769 -3772 0
-3769 -3773 0
-3769 -3774 0
-3769 -3775 0
-3769 -3776 0
-3770 -3771 0
-3770 -3772 0
-3770 -3773 0
-3770 -3774 0
-3770 -3775 0
-3770 -3776 0
-3771 -3772 0
-3771 -3773 0
-3771 -3774 0
-3771 -3775 0
-3771 -3776 0
-3772 -3773 0
-3772 -3774 0
-3772 -3775 0
-3772 -3776 0
-3773 -3774 0
-3773 -3775 0
-3773 -3776 0
-3774 -3775 0
-3774 -3776 0
-3775 -3776 0
3777 3778 3779 3780 3781 3782 3783 3784 3785 3786 3787 3788 3789 3790 3791 3792 0
-3777 -3778 0
-3777 -3779 0
-3777 -3780 0
-3777 -3781 0
-3777 -3782 0
-3777 -3783 0
-3777 -3784 0
-3777 -3785 0
-3777 -3786 0
-3777 -3787 0
-3777 -3788 0
-3777 -3789 0
-3777 -3790 0
-3777 -3791 0
-3777 -3792 0
-3778 -3779 0
-3778 -3780 0
-3778 -3781 0
-3778 -3782 0
-3778 -3783 0
-3778 -3784 0
-3778 -3785 0
-3778 -3786 0
-3778 -3787 0
-3778 -3788 0
-3778 -3789 0
-3778 -3790 0
-3778 -3791 0
-3778 -3792 0
-3779 -3780 0
-3779 -3781 0
-3779 -3782 0
-3779 -3783 0
-3779 -3784 0
-3779 -3785 0
-3779 -3786 0
-3779 -3787 0
-3779 -3788 0
-3779 -3789 0
-3779 -3790 0
-3779 -3791 0
-3779 -3792 0
-3780 -3781 0
-3780 -3782 0
-3780 -3783 0
-3780 -3784 0
-3780 -3785 0
-3780 -3786 0
-3780 -3787 0
-3780 -3788 0
-3780 -3789 0
-3780 -3790 0
-3780 -3791 0
-3780 -3792 0
-3781 -3782 0
-3781 -3783 0
-3781 -3784 0
-3781 -3785 0
-3781 -3786 0
-3781 -3787 0
-3781 -3788 0
-3781 -3789 0
-3781 -3790 0
-3781 -3791 0
-3781 -3792 0
-3782 -3783 0
-3782 -3784 0
-3782 -3785 0
-3782 -3786 0
-3782 -3787 0
-3782 -3788 0
-3782 -3789 0
-3782 -3790 0
-3782 -3791 0
-3782 -3792 0
-3783 -3784 0
-3783 -3785 0
-3783 -3786 0
-3783 -3787 0
-3783 -3788 0
-3783 -3789 0
-3783 -3790 0
-3783 -3791 0
-3783 -3792 0
-3784 -3785 0
-3784 -3786 0
-3784 -3787 0
-3784 -3788 0
-3784 -3789 0
-3784 -3790 0
-3784 -3791 0
-3784 -3792 0
-3785 -3786 0
-3785 -3787 0
-3785 -3788 0
-3785 -3789 0
-3785 -3790 0
-3785 -3791 0
-3785 -3792 0
-3786 -3787 0
-3786 -3788 0
-3786 -3789 0
-3786 -3790 0
-3786 -3791 0
-3786 -3792 0
-3787 -3788 0
-3787 -3789 0
-3787 -3790 0
-3787 -3791 0
-3787 -3792 0
-3788 -3789 0
-3788 -3790 0
-3788 -3791 0
-3788 -3792 0
-3789 -3790 0
-3789 -3791 0
-3789 -3792 0
-3790 -3791 0
-3790 -3792 0
-3791 -3792 0
3793 3794 3795 3796 3797 3798 3799 3800 3801 3802 3803 3804 3805 3806 3807 3808 0
-3793 -3794 0
-3793 -3795 0
-3793 -3796 0
-3793 -3797 0
-3793 -3798 0
-3793 -3799 0
-3793 -3800 0
-3793 -3801 0
-3793 -3802 0
-3793 -3803 0
-3793 -3804 0
-3793 -3805 0
-3793 -3806 0
-3793 -3807 0
-3793 -3808 0
-3794 -3795 0
-3794 -3796 0
-3794 -3797 0
-3794 -3798 0
-3794 -3799 0
-3794 -3800 0
-3794 -3801 0
-3794 -3802 0
-3794 -3803 0
-3794 -3804 0
-3794 -3805 0
-3794 -3806 0
-3794 -3807 0
-3794 -3808 0
-3795 -3796 0
-3795 -3797 0
-3795 -3798 0
-3795 -3799 0
-3795 -3800 0
-3795 -3801 0
-3795 -3802 0
-3795 -3803 0
-3795 -3804 0
-3795 -3805 0
-3795 -3806 0
-3795 -3807 0
-3795 -3808 0
-3796 -3797 0
-3796 -3798 0
-3796 -3799 0
-3796 -3800 0
-3796 -3801 0
-3796 -3802 0
-3796 -3803 0
-3796 -3804 0
-3796 -3805 0
-3796 -3806 0
-3796 -3807 0
-3796 -3808 0
-3797 -3798 0
-3797 -3799 0
-3797 -3800 0
-3797 -3801 0
-3797 -3802 0
-3797 -3803 0
-3797 -3804 0
-3797 -3805 0
-3797 -3806 0
-3797 -3807 0
-3797 -3808 0
-3798 -3799 0
-3798 -3800 0
-3798 -3801 0
-3798 -3802 0
-3798 -3803 0
-3798 -3804 0
-3798 -3805 0
-3798 -3806 0
-3798 -3807 0
-3798 -3808 0
-3799 -3800 0
-3799 -3801 0
-3799 -3802 0
-3799 -3803 0
-3799 -3804 0
-3799 -3805 0
-3799 -3806 0
-3799 -3807 0
-3799 -3808 0
-3800 -3801 0
-3800 -3802 0
-3800 -3803 0
-3800 -3804 0
-3800 -3805 0
-3800 -3806 0
-3800 -3807 0
-3800 -3808 0
-3801 -3802 0
-3801 -3803 0
-3801 -3804 0
-3801 -3805 0
-3801 -3806 0
-3801 -3807 0
-3801 -3808 0
-3802 -3803 0
-3802 -3804 0
-3802 -3805 0
-3802 -3806 0
-3802 -3807 0
-3802 -3808 0
-3803 -3804 0
-3803 -3805 0
-3803 -3806 0
-3803 -3807 0
-3803 -3808 0
-3804 -3805 0
-3804 -3806 0
-3804 -3807 0
-3804 -3808 0
-3805 -3806 0
-3805 -3807 0
-3805 -3808 0
-3806 -3807 0
-3806 -3808 0
-3807 -3808 0
3809 3810 3811 3812 3813 3814 3815 3816 3817 3818 3819 3820 3821 3822 3823 3824 0
-3809 -3810 0
-3809 -3811 0
-3809 -3812 0
-3809 -3813 0
-3809 -3814 0
-3809 -3815 0
-3809 -3816 0
-3809 -3817 0
-3809 -3818 0
-3809 -3819 0
-3809 -3820 0
-3809 -3821 0
-3809 -3822 0
-3809 -3823 0
-3809 -3824 0
-3810 -3811 0
-3810 -3812 0
-3810 -3813 0
-3810 -3814 0
-3810 -3815 0
-3810 -3816 0
-3810 -3817 0
-3810 -3818 0
-3810 -3819 0
-3810 -3820 0
-3810 -3821 0
-3810 -3822 0
-3810 -3823 0
-3810 -3824 0
-3811 -3812 0
-3811 -3813 0
-3811 -3814 0
-3811 -3815 0
-3811 -3816 0
-3811 -3817 0
-3811 -3818 0
-3811 -3819 0
-3811 -3820 0
-3811 -3821 0
-3811 -3822 0
-3811 -3823 0
-3811 -3824 0
-3812 -3813 0
-3812 -3814 0
-3812 -3815 0
-3812 -3816 0
-3812 -3817 0
-3812 -3818 0
-3812 -3819 0
-3812 -3820 0
-3812 -3821 0
-3812 -3822 0
-3812 -3823 0
-3812 -3824 0
-3813 -3814 0
-3813 -3815 0
-3813 -3816 0
-3813 -3817 0
-3813 -3818 0
-3813 -3819 0
-3813 -3820 0
-3813 -3821 0
-3813 -3822 0
-3813 -3823 0
-3813 -3824 0
-3814 -3815 0
-3814 -3816 0
-3814 -3817 0
-3814 -3818 0
-3814 -3819 0
-3814 -3820 0
-3814 -3821 0
-3814 -3822 0
-3814 -3823 0
-3814 -3824 0
-3815 -3816 0
-3815 -3817 0
-3815 -3818 0
-3815 -3819 0
-3815 -3820 0
-3815 -3821 0
-3815 -3822 0
-3815 -3823 0
-3815 -3824 0
-3816 -3817 0
-3816 -3818 0
-3816 -3819 0
-3816 -3820 0
-3816 -3821 0
-3816 -3822 0
-3816 -3823 0
-3816 -3824 0
-3817 -3818 0
-3817 -3819 0
-3817 -3820 0
-3817 -3821 0
-3817 -3822 0
-3817 -3823 0
-3817 -3824 0
-3818 -3819 0
-3818 -3820 0
-3818 -3821 0
-3818 -3822 0
-3818 -3823 0
-3818 -3824 0
-3819 -3820 0
-3819 -3821 0
-3819 -3822 0
-3819 -3823 0
-3819 -3824 0
-3820 -3821 0
-3820 -3822 0
-3820 -3823 0
-3820 -3824 0
-3821 -3822 0
-3821 -3823 0
-3821 -3824 0
-3822 -3823 0
-3822 -3824 0
-3823 -3824 0
3825 3826 3827 3828 3829 3830 3831 3832 3833 3834 3835 3836 3837 3838 3839 3840 0
-3825 -3826 0
-3825 -3827 0
-3825 -3828 0
-3825 -3829 0
-3825 -3830 0
-3825 -3831 0
-3825 -3832 0
-3825 -3833 0
-3825 -3834 0
-3825 -3835 0
-3825 -3836 0
-3825 -3837 0
-3825 -3838 0
-3825 -3839 0
-3825 -3840 0
-3826 -3827 0
-3826 -3828 0
-3826 -3829 0
-3826 -3830 0
-3826 -3831 0
-3826 -3832 0
-3826 -3833 0
-3826 -3834 0
-3826 -3835 0
-3826 -3836 0
-3826 -3837 0
-3826 -3838 0
-3826 -3839 0
-3826 -3840 0
-3827 -3828 0
-3827 -3829 0
-3827 -3830 0
-3827 -3831 0
-3827 -3832 0
-3827 -3833 0
-3827 -3834 0
-3827 -3835 0
-3827 -3836 0
-3827 -3837 0
-3827 -3838 0
-3827 -3839 0
-3827 -3840 0
-3828 -3829 0
-3828 -3830 0
-3828 -3831 0
-3828 -3832 0
-3828 -3833 0
-3828 -3834 0
-3828 -3835 0
-3828 -3836 0
-3828 -3837 0
-3828 -3838 0
-3828 -3839 0
-3828 -3840 0
-3829 -3830 0
-3829 -3831 0
-3829 -3832 0
-3829 -3833 0
-3829 -3834 0
-3829 -3835 0
-3829 -3836 0
-3829 -3837 0
-3829 -3838 0
-3829 -3839 0
-3829 -3840 0
-3830 -3831 0
-3830 -3832 0
-3830 -3833 0
-3830 -3834 0
-3830 -3835 0
-3830 -3836 0
-3830 -3837 0
-3830 -3838 0
-3830 -3839 0
-3830 -3840 0
-3831 -3832 0
-3831 -3833 0
-3831 -3834 0
-3831 -3835 0
-3831 -3836 0
-3831 -3837 0
-3831 -3838 0
-3831 -3839 0
-3831 -3840 0
-3832 -3833 0
-3832 -3834 0
-3832 -3835 0
-3832 -3836 0
-3832 -3837 0
-3832 -3838 0
-3832 -3839 0
-3832 -3840 0
-3833 -3834 0
-3833 -3835 0
-3833 -3836 0
-3833 -3837 0
-3833 -3838 0
-3833 -3839 0
-3833 -3840 0
-3834 -3835 0
-3834 -3836 0
-3834 -3837 0
-3834 -3838 0
-3834 -3839 0
-3834 -3840 0
-3835 -3836 0
-3835 -3837 0
-3835 -3838 0
-3835 -3839 0
-3835 -3840 0
-3836 -3837 0
-3836 -3838 0
-3836 -3839 0
-3836 -3840 0
-3837 -3838 0
-3837 -3839 0
-3837 -3840 0
-3838 -3839 0
-3838 -3840 0
-3839 -3840 0
3841 3842 3843 3844 3845 3846 3847 3848 3849 3850 3851 3852 3853 3854 3855 3856 0
-3841 -3842 0
-3841 -3843 0
-3841 -3844 0
-3841 -3845 0
-3841 -3846 0
-3841 -3847 0
-3841 -3848 0
-3841 -3849 0
-3841 -3850 0
-3841 -3851 0
-3841 -3852 0
-3841 -3853 0
-3841 -3854 0
-3841 -3855 0
-3841 -3856 0
-3842 -3843 0
-3842 -3844 0
-3842 -3845 0
-3842 -3846 0
-3842 -3847 0
-3842 -3848 0
-3842 -3849 0
-3842 -3850 0
-3842 -3851 0
-3842 -3852 0
-3842 -3853 0
-3842 -3854 0
-3842 -3855 0
-3842 -3856 0
-3843 -3844 0
-3843 -3845 0
-3843 -3846 0
-3843 -3847 0
-3843 -3848 0
-3843 -3849 0
-3843 -3850 0
-3843 -3851 0
-3843 -3852 0
-3843 -3853 0
-3843 -3854 0
-3843 -3855 0
-3843 -3856 0
-3844 -3845 0
-3844 -3846 0
-3844 -3847 0
-3844 -3848 0
-3844 -3849 0
-3844 -3850 0
-3844 -3851 0
-3844 -3852 0
-3844 -3853 0
-3844 -3854 0
-3844 -3855 0
-3844 -3856 0
-3845 -3846 0
-3845 -3847 0
-3845 -3848 0
-3845 -3849 0
-3845 -3850 0
-3845 -3851 0
-3845 -3852 0
-3845 -3853 0
-3845 -3854 0
-3845 -3855 0
-3845 -3856 0
-3846 -3847 0
-3846 -3848 0
-3846 -3849 0
-3846 -3850 0
-3846 -3851 0
-3846 -3852 0
-3846 -3853 0
-3846 -3854 0
-3846 -3855 0
-3846 -3856 0
-3847 -3848 0
-3847 -3849 0
-3847 -3850 0
-3847 -3851 0
-3847 -3852 0
-3847 -3853 0
-3847 -3854 0
-3847 -3855 0
-3847 -3856 0
-3848 -3849 0
-3848 -3850 0
-3848 -3851 0
-3848 -3852 0
-3848 -3853 0
-3848 -3854 0
-3848 -3855 0
-3848 -3856 0
-3849 -3850 0
-3849 -3851 0
-3849 -3852 0
-3849 -3853 0
-3849 -3854 0
-3849 -3855 0
-3849 -3856 0
-3850 -3851 0
-3850 -3852 0
-3850 -3853 0
-3850 -3854 0
-3850 -3855 0
-3850 -3856 0
-3851 -3852 0
-3851 -3853 0
-3851 -3854 0
-3851 -3855 0
-3851 -3856 0
-3852 -3853 0
-3852 -3854 0
-3852 -3855 0
-3852 -3856 0
-3853 -3854 0
-3853 -3855 0
-3853 -3856 0
-3854 -3855 0
-3854 -3856 0
-3855 -3856 0
3857 3858 3859 3860 3861 3862 3863 3864 3865 3866 3867 3868 3869 3870 3871 3872 0
-3857 -3858 0
-3857 -3859 0
-3857 -3860 0
-3857 -3861 0
-3857 -3862 0
-3857 -3863 0
-3857 -3864 0
-3857 -3865 0
-3857 -3866 0
-3857 -3867 0
-3857 -3868 0
-3857 -3869 0
-3857 -3870 0
-3857 -3871 0
-3857 -3872 0
-3858 -3859 0
-3858 -3860 0
-3858 -3861 0
-3858 -3862 0
-3858 -3863 0
-3858 -3864 0
-3858 -3865 0
-3858 -3866 0
-3858 -3867 0
-3858 -3868 0
-3858 -3869 0
-3858 -3870 0
-3858 -3871 0
-3858 -3872 0
-3859 -3860 0
-3859 -3861 0
-3859 -3862 0
-3859 -3863 0
-3859 -3864 0
-3859 -3865 0
-3859 -3866 0
-3859 -3867 0
-3859 -3868 0
-3859 -3869 0
-3859 -3870 0
-3859 -3871 0
-3859 -3872 0
-3860 -3861 0
-3860 -3862 0
-3860 -3863 0
-3860 -3864 0
-3860 -3865 0
-3860 -3866 0
-3860 -3867 0
-3860 -3868 0
-3860 -3869 0
-3860 -3870 0
-3860 -3871 0
-3860 -3872 0
-3861 -3862 0
-3861 -3863 0
-3861 -3864 0
-3861 -3865 0
-3861 -3866 0
-3861 -3867 0
-3861 -3868 0
-3861 -3869 0
-3861 -3870 0
-3861 -3871 0
-3861 -3872 0
-3862 -3863 0
-3862 -3864 0
-3862 -3865 0
-3862 -3866 0
-3862 -3867 0
-3862 -3868 0
-3862 -3869 0
-3862 -3870 0
-3862 -3871 0
-3862 -3872 0
-3863 -3864 0
-3863 -3865 0
-3863 -3866 0
-3863 -3867 0
-3863 -3868 0
-3863 -3869 0
-3863 -3870 0
-3863 -3871 0
-3863 -3872 0
-3864 -3865 0
-3864 -3866 0
-3864 -3867 0
-3864 -3868 0
-3864 -3869 0
-3864 -3870 0
-3864 -3871 0
-3864 -3872 0
-3865 -3866 0
-3865 -3867 0
-3865 -3868 0
-3865 -3869 0
-3865 -3870 0
-3865 -3871 0
-3865 -3872 0
-3866 -3867 0
-3866 -3868 0
-3866 -3869 0
-3866 -3870 0
-3866 -3871 0
-3866 -3872 0
-3867 -3868 0
-3867 -3869 0
-3867 -3870 0
-3867 -3871 0
-3867 -3872 0
-3868 -3869 0
-3868 -3870 0
-3868 -3871 0
-3868 -3872 0
-3869 -3870 0
-3869 -3871 0
-3869 -3872 0
-3870 -3871 0
-3870 -3872 0
-3871 -3872 0
3873 3874 3875 3876 3877 3878 3879 3880 3881 3882 3883 3884 3885 3886 3887 3888 0
-3873 -3874 0
-3873 -3875 0
-3873 -3876 0
-3873 -3877 0
-3873 -3878 0
-3873 -3879 0
-3873 -3880 0
-3873 -3881 0
-3873 -3882 0
-3873 -3883 0
-3873 -3884 0
-3873 -3885 0
-3873 -3886 0
-3873 -3887 0
-3873 -3888 0
-3874 -3875 0
-3874 -3876 0
-3874 -3877 0
-3874 -3878 0
-3874 -3879 0
-3874 -3880 0
-3874 -3881 0
-3874 -3882 0
-3874 -3883 0
-3874 -3884 0
-3874 -3885 0
-3874 -3886 0
-3874 -3887 0
-3874 -3888 0
-3875 -3876 0
-3875 -3877 0
-3875 -3878 0
-3875 -3879 0
-3875 -3880 0
-3875 -3881 0
-3875 -3882 0
-3875 -3883 0
-3875 -3884 0
-3875 -3885 0
-3875 -3886 0
-3875 -3887 0
-3875 -3888 0
-3876 -3877 0
-3876 -3878 0
-3876 -3879 0
-3876 -3880 0
-3876 -3881 0
-3876 -3882 0
-3876 -3883 0
-3876 -3884 0
-3876 -3885 0
-3876 -3886 0
-3876 -3887 0
-3876 -3888 0
-3877 -3878 0
-3877 -3879 0
-3877 -3880 0
-3877 -3881 0
-3877 -3882 0
-3877 -3883 0
-3877 -3884 0
-3877 -3885 0
-3877 -3886 0
-3877 -3887 0
-3877 -3888 0
-3878 -3879 0
-3878 -3880 0
-3878 -3881 0
-3878 -3882 0
-3878 -3883 0
-3878 -3884 0
-3878 -3885 0
-3878 -3886 0
-3878 -3887 0
-3878 -3888 0
-3879 -3880 0
-3879 -3881 0
-3879 -3882 0
-3879 -3883 0
-3879 -3884 0
-3879 -3885 0
-3879 -3886 0
-3879 -3887 0
-3879 -3888 0
-3880 -3881 0
-3880 -3882 0
-3880 -3883 0
-3880 -3884 0
-3880 -3885 0
-3880 -3886 0
-3880 -3887 0
-3880 -3888 0
-3881 -3882 0
-3881 -3883 0
-3881 -3884 0
-3881 -3885 0
-3881 -3886 0
-3881 -3887 0
-3881 -3888 0
-3882 -3883 0
-3882 -3884 0
-3882 -3885 0
-3882 -3886 0
-3882 -3887 0
-3882 -3888 0
-3883 -3884 0
-3883 -3885 0
-3883 -3886 0
-3883 -3887 0
-3883 -3888 0
-3884 -3885 0
-3884 -3886 0
-3884 -3887 0
-3884 -3888 0
-3885 -3886 0
-3885 -3887 0
-3885 -3888 0
-3886 -3887 0
-3886 -3888 0
-3887 -3888 0
3889 3890 3891 3892 3893 3894 3895 3896 3897 3898 3899 3900 3901 3902 3903 3904 0
-3889 -3890 0
-3889 -3891 0
-3889 -3892 0
-3889 -3893 0
-3889 -3894 0
-3889 -3895 0
-3889 -3896 0
-3889 -3897 0
-3889 -3898 0
-3889 -3899 0
-3889 -3900 0
-3889 -3901 0
-3889 -3902 0
-3889 -3903 0
-3889 -3904 0
-3890 -3891 0
-3890 -3892 0
-3890 -3893 0
-3890 -3894 0
-3890 -3895 0
-3890 -3896 0
-3890 -3897 0
-3890 -3898 0
-3890 -3899 0
-3890 -3900 0
-3890 -3901 0
-3890 -3902 0
-3890 -3903 0
-3890 -3904 0
-3891 -3892 0
-3891 -3893 0
-3891 -3894 0
-3891 -3895 0
-3891 -3896 0
-3891 -3897 0
-3891 -3898 0
-3891 -3899 0
-3891 -3900 0
-3891 -3901 0
-3891 -3902 0
-3891 -3903 0
-3891 -3904 0
-3892 -3893 0
-3892 -3894 0
-3892 -3895 0
-3892 -3896 0
-3892 -3897 0
-3892 -3898 0
-3892 -3899 0
-3892 -3900 0
-3892 -3901 0
-3892 -3902 0
-3892 -3903 0
-3892 -3904 0
-3893 -3894 0
-3893 -3895 0
-3893 -3896 0
-3893 -3897 0
-3893 -3898 0
-3893 -3899 0
-3893 -3900 0
-3893 -3901 0
-3893 -3902 0
-3893 -3903 0
-3893 -3904 0
-3894 -3895 0
-3894 -3896 0
-3894 -3897 0
-3894 -3898 0
-3894 -3899 0
-3894 -3900 0
-3894 -3901 0
-3894 -3902 0
-3894 -3903 0
-3894 -3904 0
-3895 -3896 0
-3895 -3897 0
-3895 -3898 0
-3895 -3899 0
-3895 -3900 0
-3895 -3901 0
-3895 -3902 0
-3895 -3903 0
-3895 -3904 0
-3896 -3897 0
-3896 -3898 0
-3896 -3899 0
-3896 -3900 0
-3896 -3901 0
-3896 -3902 0
-3896 -3903 0
-3896 -3904 0
-3897 -3898 0
-3897 -3899 0
-3897 -3900 0
-3897 -3901 0
-3897 -3902 0
-3897 -3903 0
-3897 -3904 0
-3898 -3899 0
-3898 -3900 0
-3898 -3901 0
-3898 -3902 0
-3898 -3903 0
-3898 -3904 0
-3899 -3900 0
-3899 -3901 0
-3899 -3902 0
-3899 -3903 0
-3899 -3904 0
-3900 -3901 0
-3900 -3902 0
-3900 -3903 0
-3900 -3904 0
-3901 -3902 0
-3901 -3903 0
-3901 -3904 0
-3902 -3903 0
-3902 -3904 0
-3903 -3904 0
3905 3906 3907 3908 3909 3910 3911 3912 3913 3914 3915 3916 3917 3918 3919 3920 0
-3905 -3906 0
-3905 -3907 0
-3905 -3908 0
-3905 -3909 0
-3905 -3910 0
-3905 -3911 0
-3905 -3912 0
-3905 -3913 0
-3905 -3914 0
-3905 -3915 0
-3905 -3916 0
-3905 -3917 0
-3905 -3918 0
-3905 -3919 0
-3905 -3920 0
-3906 -3907 0
-3906 -3908 0
-3906 -3909 0
-3906 -3910 0
-3906 -3911 0
-3906 -3912 0
-3906 -3913 0
-3906 -3914 0
-3906 -3915 0
-3906 -3916 0
-3906 -3917 0
-3906 -3918 0
-3906 -3919 0
-3906 -3920 0
-3907 -3908 0
-3907 -3909 0
-3907 -3910 0
-3907 -3911 0
-3907 -3912 0
-3907 -3913 0
-3907 -3914 0
-3907 -3915 0
-3907 -3916 0
-3907 -3917 0
-3907 -3918 0
-3907 -3919 0
-3907 -3920 0
-3908 -3909 0
-3908 -3910 0
-3908 -3911 0
-3908 -3912 0
-3908 -3913 0
-3908 -3914 0
-3908 -3915 0
-3908 -3916 0
-3908 -3917 0
-3908 -3918 0
-3908 -3919 0
-3908 -3920 0
-3909 -3910 0
-3909 -3911 0
-3909 -3912 0
-3909 -3913 0
-3909 -3914 0
-3909 -3915 0
-3909 -3916 0
-3909 -3917 0
-3909 -3918 0
-3909 -3919 0
-3909 -3920 0
-3910 -3911 0
-3910 -3912 0
-3910 -3913 0
-3910 -3914 0
-3910 -3915 0
-3910 -3916 0
-3910 -3917 0
-3910 -3918 0
-3910 -3919 0
-3910 -3920 0
-3911 -3912 0
-3911 -3913 0
-3911 -3914 0
-3911 -3915 0
-3911 -3916 0
-3911 -3917 0
-3911 -3918 0
-3911 -3919 0
-3911 -3920 0
-3912 -3913 0
-3912 -3914 0
-3912 -3915 0
-3912 -3916 0
-3912 -3917 0
-3912 -3918 0
-3912 -3919 0
-3912 -3920 0
-3913 -3914 0
-3913 -3915 0
-3913 -3916 0
-3913 -3917 0
-3913 -3918 0
-3913 -3919 0
-3913 -3920 0
-3914 -3915 0
-3914 -3916 0
-3914 -3917 0
-3914 -3918 0
-3914 -3919 0
-3914 -3920 0
-3915 -3916 0
-3915 -3917 0
-3915 -3918 0
-3915 -3919 0
-3915 -3920 0
-3916 -3917 0
-3916 -3918 0
-3916 -3919 0
-3916 -3920 0
-3917 -3918 0
-3917 -3919 0
-3917 -3920 0
-3918 -3919 0
-3918 -3920 0
-3919 -3920 0
3921 3922 3923 3924 3925 3926 3927 3928 3929 3930 3931 3932 3933 3934 3935 3936 0
-3921 -3922 0
-3921 -3923 0
-3921 -3924 0
-3921 -3925 0
-3921 -3926 0
-3921 -3927 0
-3921 -3928 0
-3921 -3929 0
-3921 -3930 0
-3921 -3931 0
-3921 -3932 0
-3921 -3933 0
-3921 -3934 0
-3921 -3935 0
-3921 -3936 0
-3922 -3923 0
-3922 -3924 0
-3922 -3925 0
-3922 -3926 0
-3922 -3927 0
-3922 -3928 0
-3922 -3929 0
-3922 -3930 0
-3922 -3931 0
-3922 -3932 0
-3922 -3933 0
-3922 -3934 0
-3922 -3935 0
-3922 -3936 0
-3923 -3924 0
-3923 -3925 0
-3923 -3926 0
-3923 -3927 0
-3923 -3928 0
-3923 -3929 0
-3923 -3930 0
-3923 -3931 0
-3923 -3932 0
-3923 -3933 0
-3923 -3934 0
-3923 -3935 0
-3923 -3936 0
-3924 -3925 0
-3924 -3926 0
-3924 -3927 0
-3924 -3928 0
-3924 -3929 0
-3924 -3930 0
-3924 -3931 0
-3924 -3932 0
-3924 -3933 0
-3924 -3934 0
-3924 -3935 0
-3924 -3936 0
-3925 -3926 0
-3925 -3927 0
-3925 -3928 0
-3925 -3929 0
-3925 -3930 0
-3925 -3931 0
-3925 -3932 0
-3925 -3933 0
-3925 -3934 0
-3925 -3935 0
-3925 -3936 0
-3926 -3927 0
-3926 -3928 0
-3926 -3929 0
-3926 -3930 0
-3926 -3931 0
-3926 -3932 0
-3926 -3933 0
-3926 -3934 0
-3926 -3935 0
-3926 -3936 0
-3927 -3928 0
-3927 -3929 0
-3927 -3930 0
-3927 -3931 0
-3927 -3932 0
-3927 -3933 0
-3927 -3934 0
-3927 -3935 0
-3927 -3936 0
-3928 -3929 0
-3928 -3930 0
-3928 -3931 0
-3928 -3932 0
-3928 -3933 0
-3928 -3934 0
-3928 -3935 0
-3928 -3936 0
-3929 -3930 0
-3929 -3931 0
-3929 -3932 0
-3929 -3933 0
-3929 -3934 0
-3929 -3935 0
-3929 -3936 0
-3930 -3931 0
-3930 -3932 0
-3930 -3933 0
-3930 -3934 0
-3930 -3935 0
-3930 -3936 0
-3931 -3932 0
-3931 -3933 0
-3931 -3934 0
-3931 -3935 0
-3931 -3936 0
-3932 -3933 0
-3932 -3934 0
-3932 -3935 0
-3932 -3936 0
-3933 -3934 0
-3933 -3935 0
-3933 -3936 0
-3934 -3935 0
-3934 -3936 0
-3935 -3936 0
3937 3938 3939 3940 3941 3942 3943 3944 3945 3946 3947 3948 3949 3950 3951 3952 0
-3937 -3938 0
-3937 -3939 0
-3937 -3940 0
-3937 -3941 0
-3937 -3942 0
-3937 -3943 0
-3937 -3944 0
-3937 -3945 0
-3937 -3946 0
-3937 -3947 0
-3937 -3948 0
-3937 -3949 0
-3937 -3950 0
-3937 -3951 0
-3937 -3952 0
-3938 -3939 0
-3938 -3940 0
-3938 -3941 0
-3938 -3942 0
-3938 -3943 0
-3938 -3944 0
-3938 -3945 0
-3938 -3946 0
-3938 -3947 0
-3938 -3948 0
-3938 -3949 0
-3938 -3950 0
-3938 -3951 0
-3938 -3952 0
-3939 -3940 0
-3939 -3941 0
-3939 -3942 0
-3939 -3943 0
-3939 -3944 0
-3939 -3945 0
-3939 -3946 0
-3939 -3947 0
-3939 -3948 0
-3939 -3949 0
-3939 -3950 0
-3939 -3951 0
-3939 -3952 0
-3940 -3941 0
-3940 -3942 0
-3940 -3943 0
-3940 -3944 0
-3940 -3945 0
-3940 -3946 0
-3940 -3947 0
-3940 -3948 0
-3940 -3949 0
-3940 -3950 0
-3940 -3951 0
-3940 -3952 0
-3941 -3942 0
-3941 -3943 0
-3941 -3944 0
-3941 -3945 0
-3941 -3946 0
-3941 -3947 0
-3941 -3948 0
-3941 -3949 0
-3941 -3950 0
-3941 -3951 0
-3941 -3952 0
-3942 -3943 0
-3942 -3944 0
-3942 -3945 0
-3942 -3946 0
-3942 -3947 0
-3942 -3948 0
-3942 -3949 0
-3942 -3950 0
-3942 -3951 0
-3942 -3952 0
-3943 -3944 0
-3943 -3945 0
-3943 -3946 0
-3943 -3947 0
-3943 -3948 0
-3943 -3949 0
-3943 -3950 0
-3943 -3951 0
-3943 -3952 0
-3944 -3945 0
-3944 -3946 0
-3944 -3947 0
-3944 -3948 0
-3944 -3949 0
-3944 -3950 0
-3944 -3951 0
-3944 -3952 0
-3945 -3946 0
-3945 -3947 0
-3945 -3948 0
-3945 -3949 0
-3945 -3950 0
-3945 -3951 0
-3945 -3952 0
-3946 -3947 0
-3946 -3948 0
-3946 -3949 0
-3946 -3950 0
-3946 -3951 0
-3946 -3952 0
-3947 -3948 0
-3947 -3949 0
-3947 -3950 0
-3947 -3951 0
-3947 -3952 0
-3948 -3949 0
-3948 -3950 0
-3948 -3951 0
-3948 -3952 0
-3949 -3950 0
-3949 -3951 0
-3949 -3952 0
-3950 -3951 0
-3950 -3952 0
-3951 -3952 0
3953 3954 3955 3956 3957 3958 3959 3960 3961 3962 3963 3964 3965 3966 3967 3968 0
-3953 -3954 0
-3953 -3955 0
-3953 -3956 0
-3953 -3957 0
-3953 -3958 0
-3953 -3959 0
-3953 -3960 0
-3953 -3961 0
-3953 -3962 0
-3953 -3963 0
-3953 -3964 0
-3953 -3965 0
-3953 -3966 0
-3953 -3967 0
-3953 -3968 0
-3954 -3955 0
-3954 -3956 0
-3954 -3957 0
-3954 -3958 0
-3954 -3959 0
-3954 -3960 0
-3954 -3961 0
-3954 -3962 0
-3954 -3963 0
-3954 -3964 0
-3954 -3965 0
-3954 -3966 0
-3954 -3967 0
-3954 -3968 0
-3955 -3956 0
-3955 -3957 0
-3955 -3958 0
-3955 -3959 0
-3955 -3960 0
-3955 -3961 0
-3955 -3962 0
-3955 -3963 0
-3955 -3964 0
-3955 -3965 0
-3955 -3966 0
-3955 -3967 0
-3955 -3968 0
-3956 -3957 0
-3956 -3958 0
-3956 -3959 0
-3956 -3960 0
-3956 -3961 0
-3956 -3962 0
-3956 -3963 0
-3956 -3964 0
-3956 -3965 0
-3956 -3966 0
-3956 -3967 0
-3956 -3968 0
-3957 -3958 0
-3957 -3959 0
-3957 -3960 0
-3957 -3961 0
-3957 -3962 0
-3957 -3963 0
-3957 -3964 0
-3957 -3965 0
-3957 -3966 0
-3957 -3967 0
-3957 -3968 0
-3958 -3959 0
-3958 -3960 0
-3958 -3961 0
-3958 -3962 0
-3958 -3963 0
-3958 -3964 0
-3958 -3965 0
-3958 -3966 0
-3958 -3967 0
-3958 -3968 0
-3959 -3960 0
-3959 -3961 0
-3959 -3962 0
-3959 -3963 0
-3959 -3964 0
-3959 -3965 0
-3959 -3966 0
-3959 -3967 0
-3959 -3968 0
-3960 -3961 0
-3960 -3962 0
-3960 -3963 0
-3960 -3964 0
-3960 -3965 0
-3960 -3966 0
-3960 -3967 0
-3960 -3968 0
-3961 -3962 0
-3961 -3963 0
-3961 -3964 0
-3961 -3965 0
-3961 -3966 0
-3961 -3967 0
-3961 -3968 0
-3962 -3963 0
-3962 -3964 0
-3962 -3965 0
-3962 -3966 0
-3962 -3967 0
-3962 -3968 0
-3963 -3964 0
-3963 -3965 0
-3963 -3966 0
-3963 -3967 0
-3963 -3968 0
-3964 -3965 0
-3964 -3966 0
-3964 -3967 0
-3964 -3968 0
-3965 -3966 0
-3965 -3967 0
-3965 -3968 0
-3966 -3967 0
-3966 -3968 0
-3967 -3968 0
3969 3970 3971 3972 3973 3974 3975 3976 3977 3978 3979 3980 3981 3982 3983 3984 0
-3969 -3970 0
-3969 -3971 0
-3969 -3972 0
-3969 -3973 0
-3969 -3974 0
-3969 -3975 0
-3969 -3976 0
-3969 -3977 0
-3969 -3978 0
-3969 -3979 0
-3969 -3980 0
-3969 -3981 0
-3969 -3982 0
-3969 -3983 0
-3969 -3984 0
-3970 -3971 0
-3970 -3972 0
-3970 -3973 0
-3970 -3974 0
-3970 -3975 0
-3970 -3976 0
-3970 -3977 0
-3970 -3978 0
-3970 -3979 0
-3970 -3980 0
-3970 -3981 0
-3970 -3982 0
-3970 -3983 0
-3970 -3984 0
-3971 -3972 0
-3971 -3973 0
-3971 -3974 0
-3971 -3975 0
-3971 -3976 0
-3971 -3977 0
-3971 -3978 0
-3971 -3979 0
-3971 -3980 0
-3971 -3981 0
-3971 -3982 0
-3971 -3983 0
-3971 -3984 0
-3972 -3973 0
-3972 -3974 0
-3972 -3975 0
-3972 -3976 0
-3972 -3977 0
-3972 -3978 0
-3972 -3979 0
-3972 -3980 0
-3972 -3981 0
-3972 -3982 0
-3972 -3983 0
-3972 -3984 0
-3973 -3974 0
-3973 -3975 0
-3973 -3976 0
-3973 -3977 0
-3973 -3978 0
-3973 -3979 0
-3973 -3980 0
-3973 -3981 0
-3973 -3982 0
-3973 -3983 0
-3973 -3984 0
-3974 -3975 0
-3974 -3976 0
-3974 -3977 0
-3974 -3978 0
-3974 -3979 0
-3974 -3980 0
-3974 -3981 0
-3974 -3982 0
-3974 -3983 0
-3974 -3984 0
-3975 -3976 0
-3975 -3977 0
-3975 -3978 0
-3975 -3979 0
-3975 -3980 0
-3975 -3981 0
-3975 -3982 0
-3975 -3983 0
-3975 -3984 0
-3976 -3977 0
-3976 -3978 0
-3976 -3979 0
-3976 -3980 0
-3976 -3981 0
-3976 -3982 0
-3976 -3983 0
-3976 -3984 0
-3977 -3978 0
-3977 -3979 0
-3977 -3980 0
-3977 -3981 0
-3977 -3982 0
-3977 -3983 0
-3977 -3984 0
-3978 -3979 0
-3978 -3980 0
-3978 -3981 0
-3978 -3982 0
-3978 -3983 0
-3978 -3984 0
-3979 -3980 0
-3979 -3981 0
-3979 -3982 0
-3979 -3983 0
-3979 -3984 0
-3980 -3981 0
-3980 -3982 0
-3980 -3983 0
-3980 -3984 0
-3981 -3982 0
-3981 -3983 0
-3981 -3984 0
-3982 -3983 0
-3982 -3984 0
-3983 -3984 0
3985 3986 3987 3988 3989 3990 3991 3992 3993 3994 3995 3996 3997 3998 3999 4000 0
-3985 -3986 0
-3985 -3987 0
-3985 -3988 0
-3985 -3989 0
-3985 -3990 0
-3985 -3991 0
-3985 -3992 0
-3985 -3993 0
-3985 -3994 0
-3985 -3995 0
-3985 -3996 0
-3985 -3997 0
-3985 -3998 0
-3985 -3999 0
-3985 -4000 0
-3986 -3987 0
-3986 -3988 0
-3986 -3989 0
-3986 -3990 0
-3986 -3991 0
-3986 -3992 0
-3986 -3993 0
-3986 -3994 0
-3986 -3995 0
-3986 -3996 0
-3986 -3997 0
-3986 -3998 0
-3986 -3999 0
-3986 -4000 0
-3987 -3988 0
-3987 -3989 0
-3987 -3990 0
-3987 -3991 0
-3987 -3992 0
-3987 -3993 0
-3987 -3994 0
-3987 -3995 0
-3987 -3996 0
-3987 -3997 0
-3987 -3998 0
-3987 -3999 0
-3987 -4000 0
-3988 -3989 0
-3988 -3990 0
-3988 -3991 0
-3988 -3992 0
-3988 -3993 0
-3988 -3994 0
-3988 -3995 0
-3988 -3996 0
-3988 -3997 0
-3988 -3998 0
-3988 -3999 0
-3988 -4000 0
-3989 -3990 0
-3989 -3991 0
-3989 -3992 0
-3989 -3993 0
-3989 -3994 0
-3989 -3995 0
-3989 -3996 0
-3989 -3997 0
-3989 -3998 0
-3989 -3999 0
-3989 -4000 0
-3990 -3991 0
-3990 -3992 0
-3990 -3993 0
-3990 -3994 0
-3990 -3995 0
-3990 -3996 0
-3990 -3997 0
-3990 -3998 0
-3990 -3999 0
-3990 -4000 0
-3991 -3992 0
-3991 -3993 0
-3991 -3994 0
-3991 -3995 0
-3991 -3996 0
-3991 -3997 0
-3991 -3998 0
-3991 -3999 0
-3991 -4000 0
-3992 -3993 0
-3992 -3994 0
-3992 -3995 0
-3992 -3996 0
-3992 -3997 0
-3992 -3998 0
-3992 -3999 0
-3992 -4000 0
-3993 -3994 0
-3993 -3995 0
-3993 -3996 0
-3993 -3997 0
-3993 -3998 0
-3993 -3999 0
-3993 -4000 0
-3994 -3995 0
-3994 -3996 0
-3994 -3997 0
-3994 -3998 0
-3994 -3999 0
-3994 -4000 0
-3995 -3996 0
-3995 -3997 0
-3995 -3998 0
-3995 -3999 0
-3995 -4000 0
-3996 -3997 0
-3996 -3998 0
-3996 -3999 0
-3996 -4000 0
-3997 -3998 0
-3997 -3999 0
-3997 -4000 0
-3998 -3999 0
-3998 -4000 0
-3999 -4000 0
4001 4002 4003 4004 4005 4006 4007 4008 4009 4010 4011 4012 4013 4014 4015 4016 0
-4001 -4002 0
-4001 -4003 0
-4001 -4004 0
-4001 -4005 0
-4001 -4006 0
-4001 -4007 0
-4001 -4008 0
-4001 -4009 0
-4001 -4010 0
-4001 -4011 0
-4001 -4012 0
-4001 -4013 0
-4001 -4014 0
-4001 -4015 0
-4001 -4016 0
-4002 -4003 0
-4002 -4004 0
-4002 -4005 0
-4002 -4006 0
-4002 -4007 0
-4002 -4008 0
-4002 -4009 0
-4002 -4010 0
-4002 -4011 0
-4002 -4012 0
-4002 -4013 0
-4002 -4014 0
-4002 -4015 0
-4002 -4016 0
-4003 -4004 0
-4003 -4005 0
-4003 -4006 0
-4003 -4007 0
-4003 -4008 0
-4003 -4009 0
-4003 -4010 0
-4003 -4011 0
-4003 -4012 0
-4003 -4013 0
-4003 -4014 0
-4003 -4015 0
-4003 -4016 0
-4004 -4005 0
-4004 -4006 0
-4004 -4007 0
-4004 -4008 0
-4004 -4009 0
-4004 -4010 0
-4004 -4011 0
-4004 -4012 0
-4004 -4013 0
-4004 -4014 0
-4004 -4015 0
-4004 -4016 0
-4005 -4006 0
-4005 -4007 0
-4005 -4008 0
-4005 -4009 0
-4005 -4010 0
-4005 -4011 0
-4005 -4012 0
-4005 -4013 0
-4005 -4014 0
-4005 -4015 0
-4005 -4016 0
-4006 -4007 0
-4006 -4008 0
-4006 -4009 0
-4006 -4010 0
-4006 -4011 0
-4006 -4012 0
-4006 -4013 0
-4006 -4014 0
-4006 -4015 0
-4006 -4016 0
-4007 -4008 0
-4007 -4009 0
-4007 -4010 0
-4007 -4011 0
-4007 -4012 0
-4007 -4013 0
-4007 -4014 0
-4007 -4015 0
-4007 -4016 0
-4008 -4009 0
-4008 -4010 0
-4008 -4011 0
-4008 -4012 0
-4008 -4013 0
-4008 -4014 0
-4008 -4015 0
-4008 -4016 0
-4009 -4010 0
-4009 -4011 0
-4009 -4012 0
-4009 -4013 0
-4009 -4014 0
-4009 -4015 0
-4009 -4016 0
-4010 -4011 0
-4010 -4012 0
-4010 -4013 0
-4010 -4014 0
-4010 -4015 0
-4010 -4016 0
-4011 -4012 0
-4011 -4013 0
-4011 -4014 0
-4011 -4015 0
-4011 -4016 0
-4012 -4013 0
-4012 -4014 0
-4012 -4015 0
-4012 -4016 0
-4013 -4014 0
-4013 -4015 0
-4013 -4016 0
-4014 -4015 0
-4014 -4016 0
-4015 -4016 0
4017 4018 4019 4020 4021 4022 4023 4024 4025 4026 4027 4028 4029 4030 4031 4032 0
-4017 -4018 0
-4017 -4019 0
-4017 -4020 0
-4017 -4021 0
-4017 -4022 0
-4017 -4023 0
-4017 -4024 0
-4017 -4025 0
-4017 -4026 0
-4017 -4027 0
-4017 -4028 0
-4017 -4029 0
-4017 -4030 0
-4017 -4031 0
-4017 -4032 0
-4018 -4019 0
-4018 -4020 0
-4018 -4021 0
-4018 -4022 0
-4018 -4023 0
-4018 -4024 0
-4018 -4025 0
-4018 -4026 0
-4018 -4027 0
-4018 -4028 0
-4018 -4029 0
-4018 -4030 0
-4018 -4031 0
-4018 -4032 0
-4019 -4020 0
-4019 -4021 0
-4019 -4022 0
-4019 -4023 0
-4019 -4024 0
-4019 -4025 0
-4019 -4026 0
-4019 -4027 0
-4019 -4028 0
-4019 -4029 0
-4019 -4030 0
-4019 -4031 0
-4019 -4032 0
-4020 -4021 0
-4020 -4022 0
-4020 -4023 0
-4020 -4024 0
-4020 -4025 0
-4020 -4026 0
-4020 -4027 0
-4020 -4028 0
-4020 -4029 0
-4020 -4030 0
-4020 -4031 0
-4020 -4032 0
-4021 -4022 0
-4021 -4023 0
-4021 -4024 0
-4021 -4025 0
-4021 -4026 0
-4021 -4027 0
-4021 -4028 0
-4021 -4029 0
-4021 -4030 0
-4021 -4031 0
-4021 -4032 0
-4022 -4023 0
-4022 -4024 0
-4022 -4025 0
-4022 -4026 0
-4022 -4027 0
-4022 -4028 0
-4022 -4029 0
-4022 -4030 0
-4022 -4031 0
-4022 -4032 0
-4023 -4024 0
-4023 -4025 0
-4023 -4026 0
-4023 -4027 0
-4023 -4028 0
-4023 -4029 0
-4023 -4030 0
-4023 -4031 0
-4023 -4032 0
-4024 -4025 0
-4024 -4026 0
-4024 -4027 0
-4024 -4028 0
-4024 -4029 0
-4024 -4030 0
-4024 -4031 0
-4024 -4032 0
-4025 -4026 0
-4025 -4027 0
-4025 -4028 0
-4025 -4029 0
-4025 -4030 0
-4025 -4031 0
-4025 -4032 0
-4026 -4027 0
-4026 -4028 0
-4026 -4029 0
-4026 -4030 0
-4026 -4031 0
-4026 -4032 0
-4027 -4028 0
-4027 -4029 0
-4027 -4030 0
-4027 -4031 0
-4027 -4032 0
-4028 -4029 0
-4028 -4030 0
-4028 -4031 0
-4028 -4032 0
-4029 -4030 0
-4029 -4031 0
-4029 -4032 0
-4030 -4031 0
-4030 -4032 0
-4031 -4032 0
4033 4034 4035 4036 4037 4038 4039 4040 4041 4042 4043 4044 4045 4046 4047 4048 0
-4033 -4034 0
-4033 -4035 0
-4033 -4036 0
-4033 -4037 0
-4033 -4038 0
-4033 -4039 0
-4033 -4040 0
-4033 -4041 0
-4033 -4042 0
-4033 -4043 0
-4033 -4044 0
-4033 -4045 0
-4033 -4046 0
-4033 -4047 0
-4033 -4048 0
-4034 -4035 0
-4034 -4036 0
-4034 -4037 0
-4034 -4038 0
-4034 -4039 0
-4034 -4040 0
-4034 -4041 0
-4034 -4042 0
-4034 -4043 0
-4034 -4044 0
-4034 -4045 0
-4034 -4046 0
-4034 -4047 0
-4034 -4048 0
-4035 -4036 0
-4035 -4037 0
-4035 -4038 0
-4035 -4039 0
-4035 -4040 0
-4035 -4041 0
-4035 -4042 0
-4035 -4043 0
-4035 -4044 0
-4035 -4045 0
-4035 -4046 0
-4035 -4047 0
-4035 -4048 0
-4036 -4037 0
-4036 -4038 0
-4036 -4039 0
-4036 -4040 0
-4036 -4041 0
-4036 -4042 0
-4036 -4043 0
-4036 -4044 0
-4036 -4045 0
-4036 -4046 0
-4036 -4047 0
-4036 -4048 0
-4037 -4038 0
-4037 -4039 0
-4037 -4040 0
-4037 -4041 0
-4037 -4042 0
-4037 -4043 0
-4037 -4044 0
-4037 -4045 0
-4037 -4046 0
-4037 -4047 0
-4037 -4048 0
-4038 -4039 0
-4038 -4040 0
-4038 -4041 0
-4038 -4042 0
-4038 -4043 0
-4038 -4044 0
-4038 -4045 0
-4038 -4046 0
-4038 -4047 0
-4038 -4048 0
-4039 -4040 0
-4039 -4041 0
-4039 -4042 0
-4039 -4043 0
-4039 -4044 0
-4039 -4045 0
-4039 -4046 0
-4039 -4047 0
-4039 -4048 0
-4040 -4041 0
-4040 -4042 0
-4040 -4043 0
-4040 -4044 0
-4040 -4045 0
-4040 -4046 0
-4040 -4047 0
-4040 -4048 0
-4041 -4042 0
-4041 -4043 0
-4041 -4044 0
-4041 -4045 0
-4041 -4046 0
-4041 -4047 0
-4041 -4048 0
-4042 -4043 0
-4042 -4044 0
-4042 -4045 0
-4042 -4046 0
-4042 -4047 0
-4042 -4048 0
-4043 -4044 0
-4043 -4045 0
-4043 -4046 0
-4043 -4047 0
-4043 -4048 0
-4044 -4045 0
-4044 -4046 0
-4044 -4047 0
-4044 -4048 0
-4045 -4046 0
-4045 -4047 0
-4045 -4048 0
-4046 -4047 0
-4046 -4048 0
-4047 -4048 0
4049 4050 4051 4052 4053 4054 4055 4056 4057 4058 4059 4060 4061 4062 4063 4064 0
-4049 -4050 0
-4049 -4051 0
-4049 -4052 0
-4049 -4053 0
-4049 -4054 0
-4049 -4055 0
-4049 -4056 0
-4049 -4057 0
-4049 -4058 0
-4049 -4059 0
-4049 -4060 0
-4049 -4061 0
-4049 -4062 0
-4049 -4063 0
-4049 -4064 0
-4050 -4051 0
-4050 -4052 0
-4050 -4053 0
-4050 -4054 0
-4050 -4055 0
-4050 -4056 0
-4050 -4057 0
-4050 -4058 0
-4050 -4059 0
-4050 -4060 0
-4050 -4061 0
-4050 -4062 0
-4050 -4063 0
-4050 -4064 0
-4051 -4052 0
-4051 -4053 0
-4051 -4054 0
-4051 -4055 0
-4051 -4056 0
-4051 -4057 0
-4051 -4058 0
-4051 -4059 0
-4051 -4060 0
-4051 -4061 0
-4051 -4062 0
-4051 -4063 0
-4051 -4064 0
-4052 -4053 0
-4052 -4054 0
-4052 -4055 0
-4052 -4056 0
-4052 -4057 0
-4052 -4058 0
-4052 -4059 0
-4052 -4060 0
-4052 -4061 0
-4052 -4062 0
-4052 -4063 0
-4052 -4064 0
-4053 -4054 0
-4053 -4055 0
-4053 -4056 0
-4053 -4057 0
-4053 -4058 0
-4053 -4059 0
-4053 -4060 0
-4053 -4061 0
-4053 -4062 0
-4053 -4063 0
-4053 -4064 0
-4054 -4055 0
-4054 -4056 0
-4054 -4057 0
-4054 -4058 0
-4054 -4059 0
-4054 -4060 0
-4054 -4061 0
-4054 -4062 0
-4054 -4063 0
-4054 -4064 0
-4055 -4056 0
-4055 -4057 0
-4055 -4058 0
-4055 -4059 0
-4055 -4060 0
-4055 -4061 0
-4055 -4062 0
-4055 -4063 0
-4055 -4064 0
-4056 -4057 0
-4056 -4058 0
-4056 -4059 0
-4056 -4060 0
-4056 -4061 0
-4056 -4062 0
-4056 -4063 0
-4056 -4064 0
-4057 -4058 0
-4057 -4059 0
-4057 -4060 0
-4057 -4061 0
-4057 -4062 0
-4057 -4063 0
-4057 -4064 0
-4058 -4059 0
-4058 -4060 0
-4058 -4061 0
-4058 -4062 0
-4058 -4063 0
-4058 -4064 0
-4059 -4060 0
-4059 -4061 0
-4059 -4062 0
-4059 -4063 0
-4059 -4064 0
-4060 -4061 0
-4060 -4062 0
-4060 -4063 0
-4060 -4064 0
-4061 -4062 0
-4061 -4063 0
-4061 -4064 0
-4062 -4063 0
-4062 -4064 0
-4063 -4064 0
4065 4066 4067 4068 4069 4070 4071 4072 4073 4074 4075 4076 4077 4078 4079 4080 0
-4065 -4066 0
-4065 -4067 0
-4065 -4068 0
-4065 -4069 0
-4065 -4070 0
-4065 -4071 0
-4065 -4072 0
-4065 -4073 0
-4065 -4074 0
-4065 -4075 0
-4065 -4076 0
-4065 -4077 0
-4065 -4078 0
-4065 -4079 0
-4065 -4080 0
-4066 -4067 0
-4066 -4068 0
-4066 -4069 0
-4066 -4070 0
-4066 -4071 0
-4066 -4072 0
-4066 -4073 0
-4066 -4074 0
-4066 -4075 0
-4066 -4076 0
-4066 -4077 0
-4066 -4078 0
-4066 -4079 0
-4066 -4080 0
-4067 -4068 0
-4067 -4069 0
-4067 -4070 0
-4067 -4071 0
-4067 -4072 0
-4067 -4073 0
-4067 -4074 0
-4067 -4075 0
-4067 -4076 0
-4067 -4077 0
-4067 -4078 0
-4067 -4079 0
-4067 -4080 0
-4068 -4069 0
-4068 -4070 0
-4068 -4071 0
-4068 -4072 0
-4068 -4073 0
-4068 -4074 0
-4068 -4075 0
-4068 -4076 0
-4068 -4077 0
-4068 -4078 0
-4068 -4079 0
-4068 -4080 0
-4069 -4070 0
-4069 -4071 0
-4069 -4072 0
-4069 -4073 0
-4069 -4074 0
-4069 -4075 0
-4069 -4076 0
-4069 -4077 0
-4069 -4078 0
-4069 -4079 0
-4069 -4080 0
-4070 -4071 0
-4070 -4072 0
-4070 -4073 0
-4070 -4074 0
-4070 -4075 0
-4070 -4076 0
-4070 -4077 0
-4070 -4078 0
-4070 -4079 0
-4070 -4080 0
-4071 -4072 0
-4071 -4073 0
-4071 -4074 0
-4071 -4075 0
-4071 -4076 0
-4071 -4077 0
-4071 -4078 0
-4071 -4079 0
-4071 -4080 0
-4072 -4073 0
-4072 -4074 0
-4072 -4075 0
-4072 -4076 0
-4072 -4077 0
-4072 -4078 0
-4072 -4079 0
-4072 -4080 0
-4073 -4074 0
-4073 -4075 0
-4073 -4076 0
-4073 -4077 0
-4073 -4078 0
-4073 -4079 0
-4073 -4080 0
-4074 -4075 0
-4074 -4076 0
-4074 -4077 0
-4074 -4078 0
-4074 -4079 0
-4074 -4080 0
-4075 -4076 0
-4075 -4077 0
-4075 -4078 0
-4075 -4079 0
-4075 -4080 0
-4076 -4077 0
-4076 -4078 0
-4076 -4079 0
-4076 -4080 0
-4077 -4078 0
-4077 -4079 0
-4077 -4080 0
-4078 -4079 0
-4078 -4080 0
-4079 -4080 0
4081 4082 4083 4084 4085 4086 4087 4088 4089 4090 4091 4092 4093 4094 4095 4096 0
-4081 -4082 0
-4081 -4083 0
-4081 -4084 0
-4081 -4085 0
-4081 -4086 0
-4081 -4087 0
-4081 -4088 0
-4081 -4089 0
-4081 -4090 0
-4081 -4091 0
-4081 -4092 0
-4081 -4093 0
-4081 -4094 0
-4081 -4095 0
-4081 -4096 0
-4082 -4083 0
-4082 -4084 0
-4082 -4085 0
-4082 -4086 0
-4082 -4087 0
-4082 -4088 0
-4082 -4089 0
-4082 -4090 0
-4082 -4091 0
-4082 -4092 0
-4082 -4093 0
-4082 -4094 0
-4082 -4095 0
-4082 -4096 0
-4083 -4084 0
-4083 -4085 0
-4083 -4086 0
-4083 -4087 0
-4083 -4088 0
-4083 -4089 0
-4083 -4090 0
-4083 -4091 0
-4083 -4092 0
-4083 -4093 0
-4083 -4094 0
-4083 -4095 0
-4083 -4096 0
-4084 -4085 0
-4084 -4086 0
-4084 -4087 0
-4084 -4088 0
-4084 -4089 0
-4084 -4090 0
-4084 -4091 0
-4084 -4092 0
-4084 -4093 0
-4084 -4094 0
-4084 -4095 0
-4084 -4096 0
-4085 -4086 0
-4085 -4087 0
-4085 -4088 0
-4085 -4089 0
-4085 -4090 0
-4085 -4091 0
-4085 -4092 0
-4085 -4093 0
-4085 -4094 0
-4085 -4095 0
-4085 -4096 0
-4086 -4087 0
-4086 -4088 0
-4086 -4089 0
-4086 -4090 0
-4086 -4091 0
-4086 -4092 0
-4086 -4093 0
-4086 -4094 0
-4086 -4095 0
-4086 -4096 0
-4087 -4088 0
-4087 -4089 0
-4087 -4090 0
-4087 -4091 0
-4087 -4092 0
-4087 -4093 0
-4087 -4094 0
-4087 -4095 0
-4087 -4096 0
-4088 -4089 0
-4088 -4090 0
-4088 -4091 0
-4088 -4092 0
-4088 -4093 0
-4088 -4094 0
-4088 -4095 0
-4088 -4096 0
-4089 -4090 0
-4089 -4091 0
-4089 -4092 0
-4089 -4093 0
-4089 -4094 0
-4089 -4095 0
-4089 -4096 0
-4090 -4091 0
-4090 -4092 0
-4090 -4093 0
-4090 -4094 0
-4090 -4095 0
-4090 -4096 0
-4091 -4092 0
-4091 -4093 0
-4091 -4094 0
-4091 -4095 0
-4091 -4096 0
-4092 -4093 0
-4092 -4094 0
-4092 -4095 0
-4092 -4096 0
-4093 -4094 0
-4093 -4095 0
-4093 -4096 0
-4094 -4095 0
-4094 -4096 0
-4095 -4096 0
1 17 33 49 65 81 97 113 129 145 161 177 193 209 225 241 0
2 18 34 50 66 82 98 114 130 146 162 178 194 210 226 242 0
3 19 35 51 67 83 99 115 131 147 163 179 195 211 227 243 0
4 20 36 52 68 84 100 116 132 148 164 180 196 212 228 244 0
5 21 37 53 69 85 101 117 133 149 165 181 197 213 229 245 0
6 22 38 54 70 86 102 118 134 150 166 182 198 214 230 246 0
7 23 39 55 71 87 103 119 135 151 167 183 199 215 231 247 0
8 24 40 56 72 88 104 120 136 152 168 184 200 216 232 248 0
9 25 41 57 73 89 105 121 137 153 169 185 201 217 233 249 0
10 26 42 58 74 90 106 122 138 154 170 186 202 218 234 250 0
11 27 43 59 75 91 107 123 139 155 171 187 203 219 235 251 0
12 28 44 60 76 92 108 124 140 156 172 188 204 220 236 252 0
13 29 45 61 77 93 109 125 141 157 173 189 205 221 237 253 0
14 30 46 62 78 94 110 126 142 158 174 190 206 222 238 254 0
15 31 47 63 79 95 111 127 143 159 175 191 207 223 239 255 0
16 32 48 64 80 96 112 128 144 160 176 192 208 224 240 256 0
257 273 289 305 321 337 353 369 385 401 417 433 449 465 481 497 0
258 274 290 306 322 338 354 370 386 402 418 434 450 466 482 498 0
259 275 291 307 323 339 355 371 387 403 419 435 451 467 483 499 0
260 276 292 308 324 340 356 372 388 404 420 436 452 468 484 500 0
261 277 293 309 325 341 357 373 389 405 421 437 453 469 485 501 0
262 278 294 310 326 342 358 374 390 406 422 438 454 470 486 502 0
263 279 295 311 327 343 359 375 391 407 423 439 455 471 487 503 0
264 280 296 312 328 344 360 376 392 408 424 440 456 472 488 504 0
265 281 297 313 329 345 361 377 393 409 425 441 457 473 489 505 0
266 282 298 314 330 346 362 378 394 410 426 442 458 474 490 506 0
267 283 299 315 331 347 363 379 395 411 427 443 459 475 491 507 0
268 284 300 316 332 348 364 380 396 412 428 444 460 476 492 508 0
269 285 301 317 333 349 365 381 397 413 429 445 461 477 493 509 0
270 286 302 318 334 350 366 382 398 414 430 446 462 478 494 510 0
271 287 303 319 335 351 367 383 399 415 431 447 463 479 495 511 0
272 288 304 320 336 352 368 384 400 416 432 448 464 480 496 512 0
513 529 545 561 577 593 609 625 641 657 673 689 705 721 737 753 0
514 530 546 562 578 594 610 626 642 658 674 690 706 722 738 754 0
515 531 547 563 579 595 611 627 643 659 675 691 707 723 739 755 0
516 532 548 564 580 596 612 628 644 660 676 692 708 724 740 756 0
517 533 549 565 581 597 613 629 645 661 677 693 709 725 741 757 0
518 534 550 566 582 598 614 630 646 662 678 694 710 726 742 758 0
519 535 551 567 583 599 615 631 647 663 679 695 711 727 743 759 0
520 536 552 568 584 600 616 632 648 664 680 696 712 728 744 760 0
521 537 553 569 585 601 617 633 649 665 681 697 713 729 745 761 0
522 538 554 570 586 602 618 634 650 666 682 698 714 730 746 762 0
523 539 555 571 587 603 619 635 651 667 683 699 715 731 747 763 0
524 540 556 572 588 604 620 636 652 668 684 700 716 732 748 764 0
525 541 557 573 589 605 621 637 653 669 685 701 717 733 749 765 0
526 542 558 574 590 606 622 638 654 670 686 702 718 734 750 766 0
527 543 559 575 591 607 623 639 655 671 687 703 719 735 751 767 0
528 544 560 576 592 608 624 640 656 672 688 704 720 736 752 768 0
769 785 801 817 833 849 865 881 897 913 929 945 961 977 993 1009 0
770 786 802 818 834 850 866 882 898 914 930 946 962 978 994 1010 0
771 787 803 819 835 851 867 883 899 915 931 947 963 979 995 1011 0
772 788 804 820 836 852 868 884 900 916 932 948 964 980 996 1012 0
773 789 805 821 837 853 869 885 901 917 933 949 965 981 997 1013 0
774 790 806 822 838 854 870 886 902 918 934 950 966 982 998 1014 0
775 791 807 823 839 855 871 887 903 919 935 951 967 983 999 1015 0
776 792 808 824 840 856 872 888 904 920 936 952 968 984 1000 1016 0
777 793 809 825 841 857 873 889 905 921 937 953 969 985 1001 1017 0
778 794 810 826 842 858 874 890 906 922 938 954 970 986 1002 1018 0
779 795 811 827 843 859 875 891 907 923 939 955 971 987 1003 1019 0
780 796 812 828 844 860 876 892 908 924 940 956 972 988 1004 1020 0
781 797 813 829 845 861 877 893 909 925 941 957 973 989 1005 1021 0
782 798 814 830 846 862 878 894 910 926 942 958 974 990 1006 1022 0
783 799 815 831 847 863 879 895 911 927 943 959 975 991 1007 1023 0
784 800 816 832 848 864 880 896 912 928 944 960 976 992 1008 1024 0
1025 1041 1057 1073 1089 1105 1121 1137 1153 1169 1185 1201 1217 1233 1249 1265 0
1026 1042 1058 1074 1090 1106 1122 1138 1154 1170 1186 1202 1218 1234 1250 1266 0
1027 1043 1059 1075 1091 1107 1123 1139 1155 1171 1187 1203 1219 1235 1251 1267 0
1028 1044 1060 1076 1092 1108 1124 1140 1156 1172 1188 1204 1220 1236 1252 1268 0
1029 1045 1061 1077 1093 1109 1125 1141 1157 1173 1189 1205 1221 1237 1253 1269 0
1030 1046 1062 1078 1094 1110 1126 1142 1158 1174 1190 1206 1222 1238 1254 1270 0
1031 1047 1063 1079 1095 1111 1127 1143 1159 1175 1191 1207 1223 1239 1255 1271 0
1032 1048 1064 1080 1096 1112 1128 1144 1160 1176 1192 1208 1224 1240 1256 1272 0
1033 1049 1065 1081 1097 1113 1129 1145 1161 1177 1193 1209 1225 1241 1257 1273 0
1034 1050 1066 1082 1098 1114 1130 1146 1162 1178 1194 1210 1226 1242 1258 1274 0
1035 1051 1067 1083 1099 1115 1131 1147 1163 1179 1195 1211 1227 1243 1259 1275 0
1036 1052 1068 1084 1100 1116 1132 1148 1164 1180 1196 1212 1228 1244 1260 1276 0
1037 1053 1069 1085 1101 1117 1133 1149 1165 1181 1197 1213 1229 1245 1261 1277 0
1038 1054 1070 1086 1102 1118 1134 1150 1166 1182 1198 1214 1230 1246 1262 1278 0
1039 1055 1071 1087 1103 1119 1135 1151 1167 1183 1199 1215 1231 1247 1263 1279 0
1040 1056 1072 1088 1104 1120 1136 1152 1168 1184 1200 1216 1232 1248 1264 1280 0
1281 1297 1313 1329 1345 1361 1377 1393 1409 1425 1441 1457 1473 1489 1505 1521 0
1282 1298 1314 1330 1346 1362 1378 1394 1410 1426 1442 1458 1474 1490 1506 1522 0
1283 1299 1315 1331 1347 1363 1379 1395 1411 1427 1443 1459 1475 1491 1507 1523 0
1284 1300 1316 1332 1348 1364 1380 1396 1412 1428 1444 1460 1476 1492 1508 1524 0
1285 1301 1317 1333 1349 1365 1381 1397 1413 1429 1445 1461 1477 1493 1509 1525 0
1286 1302 1318 1334 1350 1366 1382 1398 1414 1430 1446 1462 1478 1494 1510 1526 0
1287 1303 1319 1335 1351 1367 1383 1399 1415 1431 1447 1463 1479 1495 1511 1527 0
1288 1304 1320 1336 1352 1368 1384 1400 1416 1432 1448 1464 1480 1496 1512 1528 0
1289 1305 1321 1337 1353 1369 1385 1401 1417 1433 1449 1465 1481 1497 1513 1529 0
1290 1306 1322 1338 1354 1370 1386 1402 1418 1434 1450 1466 1482 1498 1514 1530 0
1291 1307 1323 1339 1355 1371 1387 1403 1419 1435 1451 1467 1483 1499 1515 1531 0
1292 1308 1324 1340 1356 1372 1388 1404 1420 1436 1452 1468 1484 1500 1516 1532 0
1293 1309 1325 1341 1357 1373 1389 1405 1421 1437 1453 1469 1485 1501 1517 1533 0
1294 1310 1326 1342 1358 1374 1390 1406 1422 1438 1454 1470 1486 1502 1518 1534 0
1295 1311 1327 1343 1359 1375 1391 1407 1423 1439 1455 1471 1487 1503 1519 1535 0
1296 1312 1328 1344 1360 1376 1392 1408 1424 1440 1456 1472 1488 1504 1520 1536 0
1537 1553 1569 1585 1601 1617 1633 1649 1665 1681 1697 1713 1729 1745 1761 1777 0
1538 1554 1570 1586 1602 1618 1634 1650 1666 1682 1698 1714 1730 1746 1762 1778 0
1539 1555 1571 1587 1603 1619 1635 1651 1667 1683 1699 1715 1731 1747 1763 1779 0
1540 1556 1572 1588 1604 1620 1636 1652 1668 1684 1700 1716 1732 1748 1764 1780 0
1541 1557 1573 1589 1605 1621 1637 1653 1669 1685 1701 1717 1733 1749 1765 1781 0
1542 1558 1574 1590 1606 1622 1638 1654 1670 1686 1702 1718 1734 1750 1766 1782 0
1543 1559 1575 1591 1607 1623 1639 1655 1671 1687 1703 1719 1735 1751 1767 1783 0
1544 1560 1576 1592 1608 1624 1640 1656 1672 1688 1704 1720 1736 1752 1768 1784 0
1545 1561 1577 1593 1609 1625 1641 1657 1673 1689 1705 1721 1737 1753 1769 1785 0
1546 1562 1578 1594 1610 1626 1642 1658 1674 1690 1706 1722 1738 1754 1770 1786 0
1547 1563 1579 1595 1611 1627 1643 1659 1675 1691 1707 1723 1739 1755 1771 1787 0
1548 1564 1580 1596 1612 1628 1644 1660 1676 1692 1708 1724 1740 1756 1772 1788 0
1549 1565 1581 1597 1613 1629 1645 1661 1677 1693 1709 1725 1741 1757 1773 1789 0
1550 1566 1582 1598 1614 1630 1646 1662 1678 1694 1710 1726 1742 1758 1774 1790 0
1551 1567 1583 1599 1615 1631 1647 1663 1679 1695 1711 1727 1743 1759 1775 1791 0
1552 1568 1584 1600 1616 1632 1648 1664 1680 1696 1712 1728 1744 1760 1776 1792 0
1793 1809 1825 1841 1857 1873 1889 1905 1921 1937 1953 1969 1985 2001 2017 2033 0
1794 1810 1826 1842 1858 1874 1890 1906 1922 1938 1954 1970 1986 2002 2018 2034 0
1795 1811 1827 1843 1859 1875 1891 1907 1923 1939 1955 1971 1987 2003 2019 2035 0
1796 1812 1828 1844 1860 1876 1892 1908 1924 1940 1956 1972 1988 2004 2020 2036 0
1797 1813 1829 1845 1861 1877 1893 1909 1925 1941 1957 1973 1989 2005 2021 2037 0
1798 1814 1830 1846 1862 1878 1894 1910 1926 1942 1958 1974 1990 2006 2022 2038 0
1799 1815 1831 1847 1863 1879 1895 1911 1927 1943 1959 1975 1991 2007 2023 2039 0
1800 1816 1832 1848 1864 1880 1896 1912 1928 1944 1960 1976 1992 2008 2024 2040 0
1801 1817 1833 1849 1865 1881 1897 1913 1929 1945 1961 1977 1993 2009 2025 2041 0
1802 1818 1834 1850 1866 1882 1898 1914 1930 1946 1962 1978 1994 2010 2026 2042 0
1803 1819 1835 1851 1867 1883 1899 1915 1931 1947 1963 1979 1995 2011 2027 2043 0
1804 1820 1836 1852 1868 1884 1900 1916 1932 1948 1964 1980 1996 2012 2028 2044 0
1805 1821 1837 1853 1869 1885 1901 1917 1933 1949 1965 1981 1997 2013 2029 2045 0
1806 1822 1838 1854 1870 1886 1902 1918 1934 1950 1966 1982 1998 2014 2030 2046 0
1807 1823 1839 1855 1871 1887 1903 1919 1935 1951 1967 1983 1999 2015 2031 2047 0
1808 1824 1840 1856 1872 1888 1904 1920 1936 1952 1968 1984 2000 2016 2032 2048 0
2049 2065 2081 2097 2113 2129 2145 2161 2177 2193 2209 2225 2241 2257 2273 2289 0
2050 2066 2082 2098 2114 2130 2146 2162 2178 2194 2210 2226 2242 2258 2274 2290 0
2051 2067 2083 2099 2115 2131 2147 2163 2179 2195 2211 2227 2243 2259 2275 2291 0
2052 2068 2084 2100 2116 2132 2148 2164 2180 2196 2212 2228 2244 2260 2276 2292 0
2053 2069 2085 2101 2117 2133 2149 2165 2181 2197 2213 2229 2245 2261 2277 2293 0
2054 2070 2086 2102 2118 2134 2150 2166 2182 2198 2214 2230 2246 2262 2278 2294 0
2055 2071 2087 2103 2119 2135 2151 2167 2183 2199 2215 2231 2247 2263 2279 2295 0
2056 2072 2088 2104 2120 2136 2152 2168 2184 2200 2216 2232 2248 2264 2280 2296 0
2057 2073 2089 2105 2121 2137 2153 2169 2185 2201 2217 2233 2249 2265 2281 2297 0
2058 2074 2090 2106 2122 2138 2154 2170 2186 2202 2218 2234 2250 2266 2282 2298 0
2059 2075 2091 2107 2123 2139 2155 2171 2187 2203 2219 2235 2251 2267 2283 2299 0
2060 2076 2092 2108 2124 2140 2156 2172 2188 2204 2220 2236 2252 2268 2284 2300 0
2061 2077 2093 2109 2125 2141 2157 2173 2189 2205 2221 2237 2253 2269 2285 2301 0
2062 2078 2094 2110 2126 2142 2158 2174 2190 2206 2222 2238 2254 2270 2286 2302 0
2063 2079 2095 2111 2127 2143 2159 2175 2191 2207 2223 2239 2255 2271 2287 2303 0
2064 2080 2096 2112 2128 2144 2160 2176 2192 2208 2224 2240 2256 2272 2288 2304 0
2305 2321 2337 2353 2369 2385 2401 2417 2433 2449 2465 2481 2497 2513 2529 2545 0
2306 2322 2338 2354 2370 2386 2402 2418 2434 2450 2466 2482 2498 2514 2530 2546 0
2307 2323 2339 2355 2371 2387 2403 2419 2435 2451 2467 2483 2499 2515 2531 2547 0
2308 2324 2340 2356 2372 2388 2404 2420 2436 2452 2468 2484 2500 2516 2532 2548 0
2309 2325 2341 2357 2373 2389 2405 2421 2437 2453 2469 2485 2501 2517 2533 2549 0
2310 2326 2342 2358 2374 2390 2406 2422 2438 2454 2470 2486 2502 2518 2534 2550 0
2311 2327 2343 2359 2375 2391 2407 2423 2439 2455 2471 2487 2503 2519 2535 2551 0
2312 2328 2344 2360 2376 2392 2408 2424 2440 2456 2472 2488 2504 2520 2536 2552 0
2313 2329 2345 2361 2377 2393 2409 2425 2441 2457 2473 2489 2505 2521 2537 2553 0
2314 2330 2346 2362 2378 2394 2410 2426 2442 2458 2474 2490 2506 2522 2538 2554 0
2315 2331 2347 2363 2379 2395 2411 2427 2443 2459 2475 2491 2507 2523 2539 2555 0
2316 2332 2348 2364 2380 2396 2412 2428 2444 2460 2476 2492 2508 2524 2540 2556 0
2317 2333 2349 2365 2381 2397 2413 2429 2445 2461 2477 2493 2509 2525 2541 2557 0
2318 2334 2350 2366 2382 2398 2414 2430 2446 2462 2478 2494 2510 2526 2542 2558 0
2319 2335 2351 2367 2383 2399 2415 2431 2447 2463 2479 2495 2511 2527 2543 2559 0
2320 2336 2352 2368 2384 2400 2416 2432 2448 2464 2480 2496 2512 2528 2544 2560 0
2561 2577 2593 2609 2625 2641 2657 2673 2689 2705 2721 2737 2753 2769 2785 2801 0
2562 2578 2594 2610 2626 2642 2658 2674 2690 2706 2722 2738 2754 2770 2786 2802 0
2563 2579 2595 2611 2627 2643 2659 2675 2691 2707 2723 2739 2755 2771 2787 2803 0
2564 2580 2596 2612 2628 2644 2660 2676 2692 2708 2724 2740 2756 2772 2788 2804 0
2565 2581 2597 2613 2629 2645 2661 2677 2693 2709 2725 2741 2757 2773 2789 2805 0
2566 2582 2598 2614 2630 2646 2662 2678 2694 2710 2726 2742 2758 2774 2790 2806 0
2567 2583 2599 2615 2631 2647 2663 2679 2695 2711 2727 2743 2759 2775 2791 2807 0
2568 2584 2600 2616 2632 2648 2664 2680 2696 2712 2728 2744 2760 2776 2792 2808 0
2569 2585 2601 2617 2633 2649 2665 2681 2697 2713 2729 2745 2761 2777 2793 2809 0
2570 2586 2602 2618 2634 2650 2666 2682 2698 2714 2730 2746 2762 2778 2794 2810 0
2571 2587 2603 2619 2635 2651 2667 2683 2699 2715 2731 2747 2763 2779 2795 2811 0
2572 2588 2604 2620 2636 2652 2668 2684 2700 2716 2732 2748 2764 2780 2796 2812 0
2573 2589 2605 2621 2637 2653 2669 2685 2701 2717 2733 2749 2765 2781 2797 2813 0
2574 2590 2606 2622 2638 2654 2670 2686 2702 2718 2734 2750 2766 2782 2798 2814 0
2575 2591 2607 2623 2639 2655 2671 2687 2703 2719 2735 2751 2767 2783 2799 2815 0
2576 2592 2608 2624 2640 2656 2672 2688 2704 2720 2736 2752 2768 2784 2800 2816 0
2817 2833 2849 2865 2881 2897 2913 2929 2945 2961 2977 2993 3009 3025 3041 3057 0
2818 2834 2850 2866 2882 2898 2914 2930 2946 2962 2978 2994 3010 3026 3042 3058 0
2819 2835 2851 2867 2883 2899 2915 2931 2947 2963 2979 2995 3011 3027 3043 3059 0
2820 2836 2852 2868 2884 2900 2916 2932 2948 2964 2980 2996 3012 3028 3044 3060 0
2821 2837 2853 2869 2885 2901 2917 2933 2949 2965 2981 2997 3013 3029 3045 3061 0
2822 2838 2854 2870 2886 2902 2918 2934 2950 2966 2982 2998 3014 3030 3046 3062 0
2823 2839 2855 2871 2887 2903 2919 2935 2951 2967 2983 2999 3015 3031 3047 3063 0
2824 2840 2856 2872 2888 2904 2920 2936 2952 2968 2984 3000 3016 3032 3048 3064 0
2825 2841 2857 2873 2889 2905 2921 2937 2953 2969 2985 3001 3017 3033 3049 3065 0
2826 2842 2858 2874 2890 2906 2922 2938 2954 2970 2986 3002 3018 3034 3050 3066 0
2827 2843 2859 2875 2891 2907 2923 2939 2955 2971 2987 3003 3019 3035 3051 3067 0
2828 2844 2860 2876 2892 2908 2924 2940 2956 2972 2988 3004 3020 3036 3052 3068 0
2829 2845 2861 2877 2893 2909 2925 2941 2957 2973 2989 3005 3021 3037 3053 3069 0
2830 2846 2862 2878 2894 2910 2926 2942 2958 2974 2990 3006 3022 3038 3054 3070 0
2831 2847 2863 2879 2895 2911 2927 2943 2959 2975 2991 3007 3023 3039 3055 3071 0
2832 2848 2864 2880 2896 2912 2928 2944 2960 2976 2992 3008 3024 3040 3056 3072 0
3073 3089 3105 3121 3137 3153 3169 3185 3201 3217 3233 3249 3265 3281 3297 3313 0
3074 3090 3106 3122 3138 3154 3170 3186 3202 3218 3234 3250 3266 3282 3298 3314 0
3075 3091 3107 3123 3139 3155 3171 3187 3203 3219 3235 3251 3267 3283 3299 3315 0
3076 3092 3108 3124 3140 3156 3172 3188 3204 3220 3236 3252 3268 3284 3300 3316 0
3077 3093 3109 3125 3141 3157 3173 3189 3205 3221 3237 3253 3269 3285 3301 3317 0
3078 3094 3110 3126 3142 3158 3174 3190 3206 3222 3238 3254 3270 3286 3302 3318 0
3079 3095 3111 3127 3143 3159 3175 3191 3207 3223 3239 3255 3271 3287 3303 3319 0
3080 3096 3112 3128 3144 3160 3176 3192 3208 3224 3240 3256 3272 3288 3304 3320 0
3081 3097 3113 3129 3145 3161 3177 3193 3209 3225 3241 3257 3273 3289 3305 3321 0
3082 3098 3114 3130 3146 3162 3178 3194 3210 3226 3242 3258 3274 3290 3306 3322 0
3083 3099 3115 3131 3147 3163 3179 3195 3211 3227 3243 3259 3275 3291 3307 3323 0
3084 3100 3116 3132 3148 3164 3180 3196 3212 3228 3244 3260 3276 3292 3308 3324 0
3085 3101 3117 3133 3149 3165 3181 3197 3213 3229 3245 3261 3277 3293 3309 3325 0
3086 3102 3118 3134 3150 3166 3182 3198 3214 3230 3246 3262 3278 3294 3310 3326 0
3087 3103 3119 3135 3151 3167 3183 3199 3215 3231 3247 3263 3279 3295 3311 3327 0
3088 3104 3120 3136 3152 3168 3184 3200 3216 3232 3248 3264 3280 3296 3312 3328 0
3329 3345 3361 3377 3393 3409 3425 3441 3457 3473 3489 3505 3521 3537 3553 3569 0
3330 3346 3362 3378 3394 3410 3426 3442 3458 3474 3490 3506 3522 3538 3554 3570 0
3331 3347 3363 3379 3395 3411 3427 3443 3459 3475 3491 3507 3523 3539 3555 3571 0
3332 3348 3364 3380 3396 3412 3428 3444 3460 3476 3492 3508 3524 3540 3556 3572 0
3333 3349 3365 3381 3397 3413 3429 3445 3461 3477 3493 3509 3525 3541 3557 3573 0
3334 3350 3366 3382 3398 3414 3430 3446 3462 3478 3494 3510 3526 3542 3558 3574 0
3335 3351 3367 3383 3399 3415 3431 3447 3463 3479 3495 3511 3527 3543 3559 3575 0
3336 3352 3368 3384 3400 3416 3432 3448 3464 3480 3496 3512 3528 3544 3560 3576 0
3337 3353 3369 3385 3401 3417 3433 3449 3465 3481 3497 3513 3529 3545 3561 3577 0
3338 3354 3370 3386 3402 3418 3434 3450 3466 3482 3498 3514 3530 3546 3562 3578 0
3339 3355 3371 3387 3403 3419 3435 3451 3467 3483 3499 3515 3531 3547 3563 3579 0
3340 3356 3372 3388 3404 3420 3436 3452 3468 3484 3500 3516 3532 3548 3564 3580 0
3341 3357 3373 3389 3405 3421 3437 3453 3469 3485 3501 3517 3533 3549 3565 3581 0
3342 3358 3374 3390 3406 3422 3438 3454 3470 3486 3502 3518 3534 3550 3566 3582 0
3343 3359 3375 3391 3407 3423 3439 3455 3471 3487 3503 3519 3535 3551 3567 3583 0
3344 3360 3376 3392 3408 3424 3440 3456 3472 3488 3504 3520 3536 3552 3568 3584 0
3585 3601 3617 3633 3649 3665 3681 3697 3713 3729 3745 3761 3777 3793 3809 3825 0
3586 3602 3618 3634 3650 3666 3682 3698 3714 3730 3746 3762 3778 3794 3810 3826 0
3587 3603 3619 3635 3651 3667 3683 3699 3715 3731 3747 3763 3779 3795 3811 3827 0
3588 3604 3620 3636 3652 3668 3684 3700 3716 3732 3748 3764 3780 3796 3812 3828 0
3589 3605 3621 3637 3653 3669 3685 3701 3717 3733 3749 3765 3781 3797 3813 3829 0
3590 3606 3622 3638 3654 3670 3686 3702 3718 3734 3750 3766 3782 3798 3814 3830 0
3591 3607 3623 3639 3655 3671 3687 3703 3719 3735 3751 3767 3783 3799 3815 3831 0
3592 3608 3624 3640 3656 3672 3688 3704 3720 3736 3752 3768 3784 3800 3816 3832 0
3593 3609 3625 3641 3657 3673 3689 3705 3721 3737 3753 3769 3785 3801 3817 3833 0
3594 3610 3626 3642 3658 3674 3690 3706 3722 3738 3754 3770 3786 3802 3818 3834 0
3595 3611 3627 3643 3659 3675 3691 3707 3723 3739 3755 3771 3787 3803 3819 3835 0
3596 3612 3628 3644 3660 3676 3692 3708 3724 3740 3756 3772 3788 3804 3820 3836 0
3597 3613 3629 3645 3661 3677 3693 3709 3725 3741 3757 3773 3789 3805 3821 3837 0
3598 3614 3630 3646 3662 3678 3694 3710 3726 3742 3758 3774 3790 3806 3822 3838 0
3599 3615 3631 3647 3663 3679 3695 3711 3727 3743 3759 3775 3791 3807 3823 3839 0
3600 3616 3632 3648 3664 3680 3696 3712 3728 3744 3760 3776 3792 3808 3824 3840 0
3841 3857 3873 3889 3905 3921 3937 3953 3969 3985 4001 4017 4033 4049 4065 4081 0
3842 3858 3874 3890 3906 3922 3938 3954 3970 3986 4002 4018 4034 4050 4066 4082 0
3843 3859 3875 3891 3907 3923 3939 3955 3971 3987 4003 4019 4035 4051 4067 4083 0
3844 3860 3876 3892 3908 3924 3940 3956 3972 3988 4004 4020 4036 4052 4068 4084 0
3845 3861 3877 3893 3909 3925 3941 3957 3973 3989 4005 4021 4037 4053 4069 4085 0
3846 3862 3878 3894 3910 3926 3942 3958 3974 3990 4006 4022 4038 4054 4070 4086 0
3847 3863 3879 3895 3911 3927 3943 3959 3975 3991 4007 4023 4039 4055 4071 4087 0
3848 3864 3880 3896 3912 3928 3944 3960 3976 3992 4008 4024 4040 4056 4072 4088 0
3849 3865 3881 3897 3913 3929 3945 3961 3977 3993 4009 4025 4041 4057 4073 4089 0
3850 3866 3882 3898 3914 3930 3946 3962 3978 3994 4010 4026 4042 4058 4074 4090 0
3851 3867 3883 3899 3915 3931 3947 3963 3979 3995 4011 4027 4043 4059 4075 4091 0
3852 3868 3884 3900 3916 3932 3948 3964 3980 3996 4012 4028 4044 4060 4076 4092 0
3853 3869 3885 3901 3917 3933 3949 3965 3981 3997 4013 4029 4045 4061 4077 4093 0
3854 3870 3886 3902 3918 3934 3950 3966 3982 3998 4014 4030 4046 4062 4078 4094 0
3855 3871 3887 3903 3919 3935 3951 3967 3983 3999 4015 4031 4047 4063 4079 4095 0
3856 3872 3888 3904 3920 3936 3952 3968 3984 4000 4016 4032 4048 4064 4080 4096 0
1 257 513 769 1025 1281 1537 1793 2049 2305 2561 2817 3073 3329 3585 3841 0
2 258 514 770 1026 1282 1538 1794 2050 2306 2562 2818 3074 3330 3586 3842 0
3 259 515 771 1027 1283 1539 1795 2051 2307 2563 2819 3075 3331 3587 3843 0
4 260 516 772 1028 1284 1540 1796 2052 2308 2564 2820 3076 3332 3588 3844 0
5 261 517 773 1029 1285 1541 1797 2053 2309 2565 2821 3077 3333 3589 3845 0
6 262 518 774 1030 1286 1542 1798 2054 2310 2566 2822 3078 3334 3590 3846 0
7 263 519 775 1031 1287 1543 1799 2055 2311 2567 2823 3079 3335 3591 3847 0
8 264 520 776 1032 1288 1544 1800 2056 2312 2568 2824 3080 3336 3592 3848 0
9 265 521 777 1033 1289 1545 1801 2057 2313 2569 2825 3081 3337 3593 3849 0
10 266 522 778 1034 1290 1546 1802 2058 2314 2570 2826 3082 3338 3594 3850 0
11 267 523 779 1035 1291 1547 1803 2059 2315 2571 2827 3083 3339 3595 3851 0
12 268 524 780 1036 1292 1548 1804 2060 2316 2572 2828 3084 3340 3596 3852 0
13 269 525 781 1037 1293 1549 1805 2061 2317 2573 2829 3085 3341 3597 3853 0
14 270 526 782 1038 1294 1550 1806 2062 2318 2574 2830 3086 3342 3598 3854 0
15 271 527 783 1039 1295 1551 1807 2063 2319 2575 2831 3087 3343 3599 3855 0
16 272 528 784 1040 1296 1552 1808 2064 2320 2576 2832 3088 3344 3600 3856 0
17 273 529 785 1041 1297 1553 1809 2065 2321 2577 2833 3089 3345 3601 3857 0
18 274 530 786 1042 1298 1554 1810 2066 2322 2578 2834 3090 3346 3602 3858 0
19 275 531 787 1043 1299 1555 1811 2067 2323 2579 2835 3091 3347 3603 3859 0
20 276 532 788 1044 1300 1556 1812 2068 2324 2580 2836 3092 3348 3604 3860 0
21 277 533 789 1045 1301 1557 1813 2069 2325 2581 2837 3093 3349 3605 3861 0
22 278 534 790 1046 1302 1558 1814 2070 2326 2582 2838 3094 3350 3606 3862 0
23 279 535 791 1047 1303 1559 1815 2071 2327 2583 2839 3095 3351 3607 3863 0
24 280 536 792 1048 1304 1560 1816 2072 2328 2584 2840 3096 3352 3608 3864 0
25 281 537 793 1049 1305 1561 1817 2073 2329 2585 2841 3097 3353 3609 3865 0
26 282 538 794 1050 1306 1562 1818 2074 2330 2586 2842 3098 3354 3610 3866 0
27 283 539 795 1051 1307 1563 1819 2075 2331 2587 2843 3099 3355 3611 3867 0
28 284 540 796 1052 1308 1564 1820 2076 2332 2588 2844 3100 3356 3612 3868 0
29 285 541 797 1053 1309 1565 1821 2077 2333 2589 2845 3101 3357 3613 3869 0
30 286 542 798 1054 1310 1566 1822 2078 2334 2590 2846 3102 3358 3614 3870 0
31 287 543 799 1055 1311 1567 1823 2079 2335 2591 2847 3103 3359 3615 3871 0
32 288 544 800 1056 1312 1568 1824 2080 2336 2592 2848 3104 3360 3616 3872 0
33 289 545 801 1057 1313 1569 1825 2081 2337 2593 2849 3105 3361 3617 3873 0
34 290 546 802 1058 1314 1570 1826 2082 2338 2594 2850 3106 3362 3618 3874 0
35 291 547 803 1059 1315 1571 1827 2083 2339 2595 2851 3107 3363 3619 3875 0
36 292 548 804 1060 1316 1572 1828 2084 2340 2596 2852 3108 3364 3620 3876 0
37 293 549 805 1061 1317 1573 1829 2085 2341 2597 2853 3109 3365 3621 3877 0
38 294 550 806 1062 1318 1574 1830 2086 2342 2598 2854 3110 3366 3622 3878 0
39 295 551 807 1063 1319 1575 1831 2087 2343 2599 2855 3111 3367 3623 3879 0
40 296 552 808 1064 1320 1576 1832 2088 2344 2600 2856 3112 3368 3624 3880 0
41 297 553 809 1065 1321 1577 1833 2089 2345 2601 2857 3113 3369 3625 3881 0
42 298 554 810 1066 1322 1578 1834 2090 2346 2602 2858 3114 3370 3626 3882 0
43 299 555 811 1067 1323 1579 1835 2091 2347 2603 2859 3115 3371 3627 3883 0
44 300 556 812 1068 1324 1580 1836 2092 2348 2604 2860 3116 3372 3628 3884 0
45 301 557 813 1069 1325 1581 1837 2093 2349 2605 2861 3117 3373 3629 3885 0
46 302 558 814 1070 1326 1582 1838 2094 2350 2606 2862 3118 3374 3630 3886 0
47 303 559 815 1071 1327 1583 1839 2095 2351 2607 2863 3119 3375 3631 3887 0
48 304 560 816 1072 1328 1584 1840 2096 2352 2608 2864 3120 3376 3632 3888 0
49 305 561 817 1073 1329 1585 1841 2097 2353 2609 2865 3121 3377 3633 3889 0
50 306 562 818 1074 1330 1586 1842 2098 2354 2610 2866 3122 3378 3634 3890 0
51 307 563 819 1075 1331 1587 1843 2099 2355 2611 2867 3123 3379 3635 3891 0
52 308 564 820 1076 1332 1588 1844 2100 2356 2612 2868 3124 3380 3636 3892 0
53 309 565 821 1077 1333 1589 1845 2101 2357 2613 2869 3125 3381 3637 3893 0
54 310 566 822 1078 1334 1590 1846 2102 2358 2614 2870 3126 3382 3638 3894 0
55 311 567 823 1079 1335 1591 1847 2103 2359 2615 2871 3127 3383 3639 3895 0
56 312 568 824 1080 1336 1592 1848 2104 2360 2616 2872 3128 3384 3640 3896 0
57 313 569 825 1081 1337 1593 1849 2105 2361 2617 2873 3129 3385 3641 3897 0
58 314 570 826 1082 1338 1594 1850 2106 2362 2618 2874 3130 3386 3642 3898 0
59 315 571 827 1083 1339 1595 1851 2107 2363 2619 2875 3131 3387 3643 3899 0
60 316 572 828 1084 1340 1596 1852 2108 2364 2620 2876 3132 3388 3644 3900 0
61 317 573 829 1085 1341 1597 1853 2109 2365 2621 2877 3133 3389 3645 3901 0
62 318 574 830 1086 1342 1598 1854 2110 2366 2622 2878 3134 3390 3646 3902 0
63 319 575 831 1087 1343 1599 1855 2111 2367 2623 2879 3135 3391 3647 3903 0
64 320 576 832 1088 1344 1600 1856 2112 2368 2624 2880 3136 3392 3648 3904 0
65 321 577 833 1089 1345 1601 1857 2113 2369 2625 2881 3137 3393 3649 3905 0
66 322 578 834 1090 1346 1602 1858 2114 2370 2626 2882 3138 3394 3650 3906 0
67 323 579 835 1091 1347 1603 1859 2115 2371 2627 2883 3139 3395 3651 3907 0
68 324 580 836 1092 1348 1604 1860 2116 2372 2628 2884 3140 3396 3652 3908 0
69 325 581 837 1093 1349 1605 1861 2117 2373 2629 2885 3141 3397 3653 3909 0
70 326 582 838 1094 1350 1606 1862 2118 2374 2630 2886 3142 3398 3654 3910 0
71 327 583 839 1095 1351 1607 1863 2119 2375 2631 2887 3143 3399 3655 3911 0
72 328 584 840 1096 1352 1608 1864 2120 2376 2632 2888 3144 3400 3656 3912 0
73 329 585 841 1097 1353 1609 1865 2121 2377 2633 2889 3145 3401 3657 3913 0
74 330 586 842 1098 1354 1610 1866 2122 2378 2634 2890 3146 3402 3658 3914 0
75 331 587 843 1099 1355 1611 1867 2123 2379 2635 2891 3147 3403 3659 3915 0
76 332 588 844 1100 1356 1612 1868 2124 2380 2636 2892 3148 3404 3660 3916 0
77 333 589 845 1101 1357 1613 1869 2125 2381 2637 2893 3149 3405 3661 3917 0
78 334 590 846 1102 1358 1614 1870 2126 2382 2638 2894 3150 3406 3662 3918 0
79 335 591 847 1103 1359 1615 1871 2127 2383 2639 2895 3151 3407 3663 3919 0
80 336 592 848 1104 1360 1616 1872 2128 2384 2640 2896 3152 3408 3664 3920 0
81 337 593 849 1105 1361 1617 1873 2129 2385 2641 2897 3153 3409 3665 3921 0
82 338 594 850 1106 1362 1618 1874 2130 2386 2642 2898 3154 3410 3666 3922 0
83 339 595 851 1107 1363 1619 1875 2131 2387 2643 2899 3155 3411 3667 3923 0
84 340 596 852 1108 1364 1620 1876 2132 2388 2644 2900 3156 3412 3668 3924 0
85 341 597 853 1109 1365 1621 1877 2133 2389 2645 2901 3157 3413 3669 3925 0
86 342 598 854 1110 1366 1622 1878 2134 2390 2646 2902 3158 3414 3670 3926 0
87 343 599 855 1111 1367 1623 1879 2135 2391 2647 2903 3159 3415 3671 3927 0
88 344 600 856 1112 1368 1624 1880 2136 2392 2648 2904 3160 3416 3672 3928 0
89 345 601 857 1113 1369 1625 1881 2137 2393 2649 2905 3161 3417 3673 3929 0
90 346 602 858 1114 1370 1626 1882 2138 2394 2650 2906 3162 3418 3674 3930 0
91 347 603 859 1115 1371 1627 1883 2139 2395 2651 2907 3163 3419 3675 3931 0
92 348 604 860 1116 1372 1628 1884 2140 2396 2652 2908 3164 3420 3676 3932 0
93 349 605 861 1117 1373 1629 1885 2141 2397 2653 2909 3165 3421 3677 3933 0
94 350 606 862 1118 1374 1630 1886 2142 2398 2654 2910 3166 3422 3678 3934 0
95 351 607 863 1119 1375 1631 1887 2143 2399 2655 2911 3167 3423 3679 3935 0
96 352 608 864 1120 1376 1632 1888 2144 2400 2656 2912 3168 3424 3680 3936 0
97 353 609 865 1121 1377 1633 1889 2145 2401 2657 2913 3169 3425 3681 3937 0
98 354 610 866 1122 1378 1634 1890 2146 2402 2658 2914 3170 3426 3682 3938 0
99 355 611 867 1123 1379 1635 1891 2147 2403 2659 2915 3171 3427 3683 3939 0
100 356 612 868 1124 1380 1636 1892 2148 2404 2660 2916 3172 3428 3684 3940 0
101 357 613 869 1125 1381 1637 1893 2149 2405 2661 2917 3173 3429 3685 3941 0
102 358 614 870 1126 1382 1638 1894 2150 2406 2662 2918 3174 3430 3686 3942 0
103 359 615 871 1127 1383 1639 1895 2151 2407 2663 2919 3175 3431 3687 3943 0
104 360 616 872 1128 1384 1640 1896 2152 2408 2664 2920 3176 3432 3688 3944 0
105 361 617 873 1129 1385 1641 1897 2153 2409 2665 2921 3177 3433 3689 3945 0
106 362 618 874 1130 1386 1642 1898 2154 2410 2666 2922 3178 3434 3690 3946 0
107 363 619 875 1131 1387 1643 1899 2155 2411 2667 2923 3179 3435 3691 3947 0
108 364 620 876 1132 1388 1644 1900 2156 2412 2668 2924 3180 3436 3692 3948 0
109 365 621 877 1133 1389 1645 1901 2157 2413 2669 2925 3181 3437 3693 3949 0
110 366 622 878 1134 1390 1646 1902 2158 2414 2670 2926 3182 3438 3694 3950 0
111 367 623 879 1135 1391 1647 1903 2159 2415 2671 2927 3183 3439 3695 3951 0
112 368 624 880 1136 1392 1648 1904 2160 2416 2672 2928 3184 3440 3696 3952 0
113 369 625 881 1137 1393 1649 1905 2161 2417 2673 2929 3185 3441 3697 3953 0
114 370 626 882 1138 1394 1650 1906 2162 2418 2674 2930 3186 3442 3698 3954 0
115 371 627 883 1139 1395 1651 1907 2163 2419 2675 2931 3187 3443 3699 3955 0
116 372 628 884 1140 1396 1652 1908 2164 2420 2676 2932 3188 3444 3700 3956 0
117 373 629 885 1141 1397 1653 1909 2165 2421 2677 2933 3189 3445 3701 3957 0
118 374 630 886 1142 1398 1654 1910 2166 2422 2678 2934 3190 3446 3702 3958 0
119 375 631 887 1143 1399 1655 1911 2167 2423 2679 2935 3191 3447 3703 3959 0
120 376 632 888 1144 1400 1656 1912 2168 2424 2680 2936 3192 3448 3704 3960 0
121 377 633 889 1145 1401 1657 1913 2169 2425 2681 2937 3193 3449 3705 3961 0
122 378 634 890 1146 1402 1658 1914 2170 2426 2682 2938 3194 3450 3706 3962 0
123 379 635 891 1147 1403 1659 1915 2171 2427 2683 2939 3195 3451 3707 3963 0
124 380 636 892 1148 1404 1660 1916 2172 2428 2684 2940 3196 3452 3708 3964 0
125 381 637 893 1149 1405 1661 1917 2173 2429 2685 2941 3197 3453 3709 3965 0
126 382 638 894 1150 1406 1662 1918 2174 2430 2686 2942 3198 3454 3710 3966 0
127 383 639 895 1151 1407 1663 1919 2175 2431 2687 2943 3199 3455 3711 3967 0
128 384 640 896 1152 1408 1664 1920 2176 2432 2688 2944 3200 3456 3712 3968 0
129 385 641 897 1153 1409 1665 1921 2177 2433 2689 2945 3201 3457 3713 3969 0
130 386 642 898 1154 1410 1666 1922 2178 2434 2690 2946 3202 3458 3714 3970 0
131 387 643 899 1155 1411 1667 1923 2179 2435 2691 2947 3203 3459 3715 3971 0
132 388 644 900 1156 1412 1668 1924 2180 2436 2692 2948 3204 3460 3716 3972 0
133 389 645 901 1157 1413 1669 1925 2181 2437 2693 2949 3205 3461 3717 3973 0
134 390 646 902 1158 1414 1670 1926 2182 2438 2694 2950 3206 3462 3718 3974 0
135 391 647 903 1159 1415 1671 1927 2183 2439 2695 2951 3207 3463 3719 3975 0
136 392 648 904 1160 1416 1672 1928 2184 2440 2696 2952 3208 3464 3720 3976 0
137 393 649 905 1161 1417 1673 1929 2185 2441 2697 2953 3209 3465 3721 3977 0
138 394 650 906 1162 1418 1674 1930 2186 2442 2698 2954 3210 3466 3722 3978 0
139 395 651 907 1163 1419 1675 1931 2187 2443 2699 2955 3211 3467 3723 3979 0
140 396 652 908 1164 1420 1676 1932 2188 2444 2700 2956 3212 3468 3724 3980 0
141 397 653 909 1165 1421 1677 1933 2189 2445 2701 2957 3213 3469 3725 3981 0
142 398 654 910 1166 1422 1678 1934 2190 2446 2702 2958 3214 3470 3726 3982 0
143 399 655 911 1167 1423 1679 1935 2191 2447 2703 2959 3215 3471 3727 3983 0
144 400 656 912 1168 1424 1680 1936 2192 2448 2704 2960 3216 3472 3728 3984 0
145 401 657 913 1169 1425 1681 1937 2193 2449 2705 2961 3217 3473 3729 3985 0
146 402 658 914 1170 1426 1682 1938 2194 2450 2706 2962 3218 3474 3730 3986 0
147 403 659 915 1171 1427 1683 1939 2195 2451 2707 2963 3219 3475 3731 3987 0
148 404 660 916 1172 1428 1684 1940 2196 2452 2708 2964 3220 3476 3732 3988 0
149 405 661 917 1173 1429 1685 1941 2197 2453 2709 2965 3221 3477 3733 3989 0
150 406 662 918 1174 1430 1686 1942 2198 2454 2710 2966 3222 3478 3734 3990 0
151 407 663 919 1175 1431 1687 1943 2199 2455 2711 2967 3223 3479 3735 3991 0
152 408 664 920 1176 1432 1688 1944 2200 2456 2712 2968 3224 3480 3736 3992 0
153 409 665 921 1177 1433 1689 1945 2201 2457 2713 2969 3225 3481 3737 3993 0
154 410 666 922 1178 1434 1690 1946 2202 2458 2714 2970 3226 3482 3738 3994 0
155 411 667 923 1179 1435 1691 1947 2203 2459 2715 2971 3227 3483 3739 3995 0
156 412 668 924 1180 1436 1692 1948 2204 2460 2716 2972 3228 3484 3740 3996 0
157 413 669 925 1181 1437 1693 1949 2205 2461 2717 2973 3229 3485 3741 3997 0
158 414 670 926 1182 1438 1694 1950 2206 2462 2718 2974 3230 3486 3742 3998 0
159 415 671 927 1183 1439 1695 1951 2207 2463 2719 2975 3231 3487 3743 3999 0
160 416 672 928 1184 1440 1696 1952 2208 2464 2720 2976 3232 3488 3744 4000 0
161 417 673 929 1185 1441 1697 1953 2209 2465 2721 2977 3233 3489 3745 4001 0
162 418 674 930 1186 1442 1698 1954 2210 2466 2722 2978 3234 3490 3746 4002 0
163 419 675 931 1187 1443 1699 1955 2211 2467 2723 2979 3235 3491 3747 4003 0
164 420 676 932 1188 1444 1700 1956 2212 2468 2724 2980 3236 3492 3748 4004 0
165 421 677 933 1189 1445 1701 1957 2213 2469 2725 2981 3237 3493 3749 4005 0
166 422 678 934 1190 1446 1702 1958 2214 2470 2726 2982 3238 3494 3750 4006 0
167 423 679 935 1191 1447 1703 1959 2215 2471 2727 2983 3239 3495 3751 4007 0
168 424 680 936 1192 1448 1704 1960 2216 2472 2728 2984 3240 3496 3752 4008 0
169 425 681 937 1193 1449 1705 1961 2217 2473 2729 2985 3241 3497 3753 4009 0
170 426 682 938 1194 1450 1706 1962 2218 2474 2730 2986 3242 3498 3754 4010 0
171 427 683 939 1195 1451 1707 1963 2219 2475 2731 2987 3243 3499 3755 4011 0
172 428 684 940 1196 1452 1708 1964 2220 2476 2732 2988 3244 3500 3756 4012 0
173 429 685 941 1197 1453 1709 1965 2221 2477 2733 2989 3245 3501 3757 4013 0
174 430 686 942 1198 1454 1710 1966 2222 2478 2734 2990 3246 3502 3758 4014 0
175 431 687 943 1199 1455 1711 1967 2223 2479 2735 2991 3247 3503 3759 4015 0
176 432 688 944 1200 1456 1712 1968 2224 2480 2736 2992 3248 3504 3760 4016 0
177 433 689 945 1201 1457 1713 1969 2225 2481 2737 2993 3249 3505 3761 4017 0
178 434 690 946 1202 1458 1714 1970 2226 2482 2738 2994 3250 3506 3762 4018 0
179 435 691 947 1203 1459 1715 1971 2227 2483 2739 2995 3251 3507 3763 4019 0
180 436 692 948 1204 1460 1716 1972 2228 2484 2740 2996 3252 3508 3764 4020 0
181 437 693 949 1205 1461 1717 1973 2229 2485 2741 2997 3253 3509 3765 4021 0
182 438 694 950 1206 1462 1718 1974 2230 2486 2742 2998 3254 3510 3766 4022 0
183 439 695 951 1207 1463 1719 1975 2231 2487 2743 2999 3255 3511 3767 4023 0
184 440 696 952 1208 1464 1720 1976 2232 2488 2744 3000 3256 3512 3768 4024 0
185 441 697 953 1209 1465 1721 1977 2233 2489 2745 3001 3257 3513 3769 4025 0
186 442 698 954 1210 1466 1722 1978 2234 2490 2746 3002 3258 3514 3770 4026 0
187 443 699 955 1211 1467 1723 1979 2235 2491 2747 3003 3259 3515 3771 4027 0
188 444 700 956 1212 1468 1724 1980 2236 2492 2748 3004 3260 3516 3772 4028 0
189 445 701 957 1213 1469 1725 1981 2237 2493 2749 3005 3261 3517 3773 4029 0
190 446 702 958 1214 1470 1726 1982 2238 2494 2750 3006 3262 3518 3774 4030 0
191 447 703 959 1215 1471 1727 1983 2239 2495 2751 3007 3263 3519 3775 4031 0
192 448 704 960 1216 1472 1728 1984 2240 2496 2752 3008 3264 3520 3776 4032 0
193 449 705 961 1217 1473 1729 1985 2241 2497 2753 3009 3265 3521 3777 4033 0
194 450 706 962 1218 1474 1730 1986 2242 2498 2754 3010 3266 3522 3778 4034 0
195 451 707 963 1219 1475 1731 1987 2243 2499 2755 3011 3267 3523 3779 4035 0
196 452 708 964 1220 1476 1732 1988 2244 2500 2756 3012 3268 3524 3780 4036 0
197 453 709 965 1221 1477 1733 1989 2245 2501 2757 3013 3269 3525 3781 4037 0
198 454 710 966 1222 1478 1734 1990 2246 2502 2758 3014 3270 3526 3782 4038 0
199 455 711 967 1223 1479 1735 1991 2247 2503 2759 3015 3271 3527 3783 4039 0
200 456 712 968 1224 1480 1736 1992 2248 2504 2760 3016 3272 3528 3784 4040 0
201 457 713 969 1225 1481 1737 1993 2249 2505 2761 3017 3273 3529 3785 4041 0
202 458 714 970 1226 1482 1738 1994 2250 2506 2762 3018 3274 3530 3786 4042 0
203 459 715 971 1227 1483 1739 1995 2251 2507 2763 3019 3275 3531 3787 4043 0
204 460 716 972 1228 1484 1740 1996 2252 2508 2764 3020 3276 3532 3788 4044 0
205 461 717 973 1229 1485 1741 1997 2253 2509 2765 3021 3277 3533 3789 4045 0
206 462 718 974 1230 1486 1742 1998 2254 2510 2766 3022 3278 3534 3790 4046 0
207 463 719 975 1231 1487 1743 1999 2255 2511 2767 3023 3279 3535 3791 4047 0
208 464 720 976 1232 1488 1744 2000 2256 2512 2768 3024 3280 3536 3792 4048 0
209 465 721 977 1233 1489 1745 2001 2257 2513 2769 3025 3281 3537 3793 4049 0
210 466 722 978 1234 1490 1746 2002 2258 2514 2770 3026 3282 3538 3794 4050 0
211 467 723 979 1235 1491 1747 2003 2259 2515 2771 3027 3283 3539 3795 4051 0
212 468 724 980 1236 1492 1748 2004 2260 2516 2772 3028 3284 3540 3796 4052 0
213 469 725 981 1237 1493 1749 2005 2261 2517 2773 3029 3285 3541 3797 4053 0
214 470 726 982 1238 1494 1750 2006 2262 2518 2774 3030 3286 3542 3798 4054 0
215 471 727 983 1239 1495 1751 2007 2263 2519 2775 3031 3287 3543 3799 4055 0
216 472 728 984 1240 1496 1752 2008 2264 2520 2776 3032 3288 3544 3800 4056 0
217 473 729 985 1241 1497 1753 2009 2265 2521 2777 3033 3289 3545 3801 4057 0
218 474 730 986 1242 1498 1754 2010 2266 2522 2778 3034 3290 3546 3802 4058 0
219 475 731 987 1243 1499 1755 2011 2267 2523 2779 3035 3291 3547 3803 4059 0
220 476 732 988 1244 1500 1756 2012 2268 2524 2780 3036 3292 3548 3804 4060 0
221 477 733 989 1245 1501 1757 2013 2269 2525 2781 3037 3293 3549 3805 4061 0
222 478 734 990 1246 1502 1758 2014 2270 2526 2782 3038 3294 3550 3806 4062 0
223 479 735 991 1247 1503 1759 2015 2271 2527 2783 3039 3295 3551 3807 4063 0
224 480 736 992 1248 1504 1760 2016 2272 2528 2784 3040 3296 3552 3808 4064 0
225 481 737 993 1249 1505 1761 2017 2273 2529 2785 3041 3297 3553 3809 4065 0
226 482 738 994 1250 1506 1762 2018 2274 2530 2786 3042 3298 3554 3810 4066 0
227 483 739 995 1251 1507 1763 2019 2275 2531 2787 3043 3299 3555 3811 4067 0
228 484 740 996 1252 1508 1764 2020 2276 2532 2788 3044 3300 3556 3812 4068 0
229 485 741 997 1253 1509 1765 2021 2277 2533 2789 3045 3301 3557 3813 4069 0
230 486 742 998 1254 1510 1766 2022 2278 2534 2790 3046 3302 3558 3814 4070 0
231 487 743 999 1255 1511 1767 2023 2279 2535 2791 3047 3303 3559 3815 4071 0
232 488 744 1000 1256 1512 1768 2024 2280 2536 2792 3048 3304 3560 3816 4072 0
233 489 745 1001 1257 1513 1769 2025 2281 2537 2793 3049 3305 3561 3817 4073 0
234 490 746 1002 1258 1514 1770 2026 2282 2538 2794 3050 3306 3562 3818 4074 0
235 491 747 1003 1259 1515 1771 2027 2283 2539 2795 3051 3307 3563 3819 4075 0
236 492 748 1004 1260 1516 1772 2028 2284 2540 2796 3052 3308 3564 3820 4076 0
237 493 749 1005 1261 1517 1773 2029 2285 2541 2797 3053 3309 3565 3821 4077 0
238 494 750 1006 1262 1518 1774 2030 2286 2542 2798 3054 3310 3566 3822 4078 0
239 495 751 1007 1263 1519 1775 2031 2287 2543 2799 3055 3311 3567 3823 4079 0
240 496 752 1008 1264 1520 1776 2032 2288 2544 2800 3056 3312 3568 3824 4080 0
241 497 753 1009 1265 1521 1777 2033 2289 2545 2801 3057 3313 3569 3825 4081 0
242 498 754 1010 1266 1522 1778 2034 2290 2546 2802 3058 3314 3570 3826 4082 0
243 499 755 1011 1267 1523 1779 2035 2291 2547 2803 3059 3315 3571 3827 4083 0
244 500 756 1012 1268 1524 1780 2036 2292 2548 2804 3060 3316 3572 3828 4084 0
245 501 757 1013 1269 1525 1781 2037 2293 2549 2805 3061 3317 3573 3829 4085 0
246 502 758 1014 1270 1526 1782 2038 2294 2550 2806 3062 3318 3574 3830 4086 0
247 503 759 1015 1271 1527 1783 2039 2295 2551 2807 3063 3319 3575 3831 4087 0
248 504 760 1016 1272 1528 1784 2040 2296 2552 2808 3064 3320 3576 3832 4088 0
249 505 761 1017 1273 1529 1785 2041 2297 2553 2809 3065 3321 3577 3833 4089 0
250 506 762 1018 1274 1530 1786 2042 2298 2554 2810 3066 3322 3578 3834 4090 0
251 507 763 1019 1275 1531 1787 2043 2299 2555 2811 3067 3323 3579 3835 4091 0
252 508 764 1020 1276 1532 1788 2044 2300 2556 2812 3068 3324 3580 3836 4092 0
253 509 765 1021 1277 1533 1789 2045 2301 2557 2813 3069 3325 3581 3837 4093 0
254 510 766 1022 1278 1534 1790 2046 2302 2558 2814 3070 3326 3582 3838 4094 0
255 511 767 1023 1279 1535 1791 2047 2303 2559 2815 3071 3327 3583 3839 4095 0
256 512 768 1024 1280 1536 1792 2048 2304 2560 2816 3072 3328 3584 3840 4096 0
1 17 33 49 257 273 289 305 513 529 545 561 769 785 801 817 0
2 18 34 50 258 274 290 306 514 530 546 562 770 786 802 818 0
3 19 35 51 259 275 291 307 515 531 547 563 771 787 803 819 0
4 20 36 52 260 276 292 308 516 532 548 564 772 788 804 820 0
5 21 37 53 261 277 293 309 517 533 549 565 773 789 805 821 0
6 22 38 54 262 278 294 310 518 534 550 566 774 790 806 822 0
7 23 39 55 263 279 295 311 519 535 551 567 775 791 807 823 0
8 24 40 56 264 280 296 312 520 536 552 568 776 792 808 824 0
9 25 41 57 265 281 297 313 521 537 553 569 777 793 809 825 0
10 26 42 58 266 282 298 314 522 538 554 570 778 794 810 826 0
11 27 43 59 267 283 299 315 523 539 555 571 779 795 811 827 0
12 28 44 60 268 284 300 316 524 540 556 572 780 796 812 828 0
13 29 45 61 269 285 301 317 525 541 557 573 781 797 813 829 0
14 30 46 62 270 286 302 318 526 542 558 574 782 798 814 830 0
15 31 47 63 271 287 303 319 527 543 559 575 783 799 815 831 0
16 32 48 64 272 288 304 320 528 544 560 576 784 800 816 832 0
65 81 97 113 321 337 353 369 577 593 609 625 833 849 865 881 0
66 82 98 114 322 338 354 370 578 594 610 626 834 850 866 882 0
67 83 99 115 323 339 355 371 579 595 611 627 835 851 867 883 0
68 84 100 116 324 340 356 372 580 596 612 628 836 852 868 884 0
69 85 101 117 325 341 357 373 581 597 613 629 837 853 869 885 0
70 86 102 118 326 342 358 374 582 598 614 630 838 854 870 886 0
71 87 103 119 327 343 359 375 583 599 615 631 839 855 871 887 0
72 88 104 120 328 344 360 376 584 600 616 632 840 856 872 888 0
73 89 105 121 329 345 361 377 585 601 617 633 841 857 873 889 0
74 90 106 122 330 346 362 378 586 602 618 634 842 858 874 890 0
75 91 107 123 331 347 363 379 587 603 619 635 843 859 875 891 0
76 92 108 124 332 348 364 380 588 604 620 636 844 860 876 892 0
77 93 109 125 333 349 365 381 589 605 621 637 845 861 877 893 0
78 94 110 126 334 350 366 382 590 606 622 638 846 862 878 894 0
79 95 111 127 335 351 367 383 591 607 623 639 847 863 879 895 0
80 96 112 128 336 352 368 384 592 608 624 640 848 864 880 896 0
129 145 161 177 385 401 417 433 641 657 673 689 897 913 929 945 0
130 146 162 178 386 402 418 434 642 658 674 690 898 914 930 946 0
131 147 163 179 387 403 419 435 643 659 675 691 899 915 931 947 0
132 148 164 180 388 404 420 436 644 660 676 692 900 916 932 948 0
133 149 165 181 389 405 421 437 645 661 677 693 901 917 933 949 0
134 150 166 182 390 406 422 438 646 662 678 694 902 918 934 950 0
135 151 167 183 391 407 423 439 647 663 679 695 903 919 935 951 0
136 152 168 184 392 408 424 440 648 664 680 696 904 920 936 952 0
137 153 169 185 393 409 425 441 649 665 681 697 905 921 937 953 0
138 154 170 186 394 410 426 442 650 666 682 698 906 922 938 954 0
139 155 171 187 395 411 427 443 651 667 683 699 907 923 939 955 0
140 156 172 188 396 412 428 444 652 668 684 700 908 924 940 956 0
141 157 173 189 397 413 429 445 653 669 685 701 909 925 941 957 0
142 158 174 190 398 414 430 446 654 670 686 702 910 926 942 958 0
143 159 175 191 399 415 431 447 655 671 687 703 911 927 943 959 0
144 160 176 192 400 416 432 448 656 672 688 704 912 928 944 960 0
193 209 225 241 449 465 481 497 705 721 737 753 961 977 993 1009 0
194 210 226 242 450 466 482 498 706 722 738 754 962 978 994 1010 0
195 211 227 243 451 467 483 499 707 723 739 755 963 979 995 1011 0
196 212 228 244 452 468 484 500 708 724 740 756 964 980 996 1012 0
197 213 229 245 453 469 485 501 709 725 741 757 965 981 997 1013 0
198 214 230 246 454 470 486 502 710 726 742 758 966 982 998 1014 0
199 215 231 247 455 471 487 503 711 727 743 759 967 983 999 1015 0
200 216 232 248 456 472 488 504 712 728 744 760 968 984 1000 1016 0
201 217 233 249 457 473 489 505 713 729 745 761 969 985 1001 1017 0
202 218 234 250 458 474 490 506 714 730 746 762 970 986 1002 1018 0
203 219 235 251 459 475 491 507 715 731 747 763 971 987 1003 1019 0
204 220 236 252 460 476 492 508 716 732 748 764 972 988 1004 1020 0
205 221 237 253 461 477 493 509 717 733 749 765 973 989 1005 1021 0
206 222 238 254 462 478 494 510 718 734 750 766 974 990 1006 1022 0
207 223 239 255 463 479 495 511 719 735 751 767 975 991 1007 1023 0
208 224 240 256 464 480 496 512 720 736 752 768 976 992 1008 1024 0
1025 1041 1057 1073 1281 1297 1313 1329 1537 1553 1569 1585 1793 1809 1825 1841 0
1026 1042 1058 1074 1282 1298 1314 1330 1538 1554 1570 1586 1794 1810 1826 1842 0
1027 1043 1059 1075 1283 1299 1315 1331 1539 1555 1571 1587 1795 1811 1827 1843 0
1028 1044 1060 1076 1284 1300 1316 1332 1540 1556 1572 1588 1796 1812 1828 1844 0
1029 1045 1061 1077 1285 1301 1317 1333 1541 1557 1573 1589 1797 1813 1829 1845 0
1030 1046 1062 1078 1286 1302 1318 1334 1542 1558 1574 1590 1798 1814 1830 1846 0
1031 1047 1063 1079 1287 1303 1319 1335 1543 1559 1575 1591 1799 1815 1831 1847 0
1032 1048 1064 1080 1288 1304 1320 1336 1544 1560 1576 1592 1800 1816 1832 1848 0
1033 1049 1065 1081 1289 1305 1321 1337 1545 1561 1577 1593 1801 1817 1833 1849 0
1034 1050 1066 1082 1290 1306 1322 1338 1546 1562 1578 1594 1802 1818 1834 1850 0
1035 1051 1067 1083 1291 1307 1323 1339 1547 1563 1579 1595 1803 1819 1835 1851 0
1036 1052 1068 1084 1292 1308 1324 1340 1548 1564 1580 1596 1804 1820 1836 1852 0
1037 1053 1069 1085 1293 1309 1325 1341 1549 1565 1581 1597 1805 1821 1837 1853 0
1038 1054 1070 1086 1294 1310 1326 1342 1550 1566 1582 1598 1806 1822 1838 1854 0
1039 1055 1071 1087 1295 1311 1327 1343 1551 1567 1583 1599 1807 1823 1839 1855 0
1040 1056 1072 1088 1296 1312 1328 1344 1552 1568 1584 1600 1808 1824 1840 1856 0
1089 1105 1121 1137 1345 1361 1377 1393 1601 1617 1633 1649 1857 1873 1889 1905 0
1090 1106 1122 1138 1346 1362 1378 1394 1602 1618 1634 1650 1858 1874 1890 1906 0
1091 1107 1123 1139 1347 1363 1379 1395 1603 1619 1635 1651 1859 1875 1891 1907 0
1092 1108 1124 1140 1348 1364 1380 1396 1604 1620 1636 1652 1860 1876 1892 1908 0
1093 1109 1125 1141 1349 1365 1381 1397 1605 1621 1637 1653 1861 1877 1893 1909 0
1094 1110 1126 1142 1350 1366 1382 1398 1606 1622 1638 1654 1862 1878 1894 1910 0
1095 1111 1127 1143 1351 1367 1383 1399 1607 1623 1639 1655 1863 1879 1895 1911 0
1096 1112 1128 1144 1352 1368 1384 1400 1608 1624 1640 1656 1864 1880 1896 1912 0
1097 1113 1129 1145 1353 1369 1385 1401 1609 1625 1641 1657 1865 1881 1897 1913 0
1098 1114 1130 1146 1354 1370 1386 1402 1610 1626 1642 1658 1866 1882 1898 1914 0
1099 1115 1131 1147 1355 1371 1387 1403 1611 1627 1643 1659 1867 1883 1899 1915 0
1100 1116 1132 1148 1356 1372 1388 1404 1612 1628 1644 1660 1868 1884 1900 1916 0
1101 1117 1133 1149 1357 1373 1389 1405 1613 1629 1645 1661 1869 1885 1901 1917 0
1102 1118 1134 1150 1358 1374 1390 1406 1614 1630 1646 1662 1870 1886 1902 1918 0
1103 1119 1135 1151 1359 1375 1391 1407 1615 1631 1647 1663 1871 1887 1903 1919 0
1104 1120 1136 1152 1360 1376 1392 1408 1616 1632 1648 1664 1872 1888 1904 1920 0
1153 1169 1185 1201 1409 1425 1441 1457 1665 1681 1697 1713 1921 1937 1953 1969 0
1154 1170 1186 1202 1410 1426 1442 1458 1666 1682 1698 1714 1922 1938 1954 1970 0
1155 1171 1187 1203 1411 1427 1443 1459 1667 1683 1699 1715 1923 1939 1955 1971 0
1156 1172 1188 1204 1412 1428 1444 1460 1668 1684 1700 1716 1924 1940 1956 1972 0
1157 1173 1189 1205 1413 1429 1445 1461 1669 1685 1701 1717 1925 1941 1957 1973 0
1158 1174 1190 1206 1414 1430 1446 1462 1670 1686 1702 1718 1926 1942 1958 1974 0
1159 1175 1191 1207 1415 1431 1447 1463 1671 1687 1703 1719 1927 1943 1959 1975 0
1160 1176 1192 1208 1416 1432 1448 1464 1672 1688 1704 1720 1928 1944 1960 1976 0
1161 1177 1193 1209 1417 1433 1449 1465 1673 1689 1705 1721 1929 1945 1961 1977 0
1162 1178 1194 1210 1418 1434 1450 1466 1674 1690 1706 1722 1930 1946 1962 1978 0
1163 1179 1195 1211 1419 1435 1451 1467 1675 1691 1707 1723 1931 1947 1963 1979 0
1164 1180 1196 1212 1420 1436 1452 1468 1676 1692 1708 1724 1932 1948 1964 1980 0
1165 1181 1197 1213 1421 1437 1453 1469 1677 1693 1709 1725 1933 1949 1965 1981 0
1166 1182 1198 1214 1422 1438 1454 1470 1678 1694 1710 1726 1934 1950 1966 1982 0
1167 1183 1199 1215 1423 1439 1455 1471 1679 1695 1711 1727 1935 1951 1967 1983 0
1168 1184 1200 1216 1424 1440 1456 1472 1680 1696 1712 1728 1936 1952 1968 1984 0
1217 1233 1249 1265 1473 1489 1505 1521 1729 1745 1761 1777 1985 2001 2017 2033 0
1218 1234 1250 1266 1474 1490 1506 1522 1730 1746 1762 1778 1986 2002 2018 2034 0
1219 1235 1251 1267 1475 1491 1507 1523 1731 1747 1763 1779 1987 2003 2019 2035 0
1220 1236 1252 1268 1476 1492 1508 1524 1732 1748 1764 1780 1988 2004 2020 2036 0
1221 1237 1253 1269 1477 1493 1509 1525 1733 1749 1765 1781 1989 2005 2021 2037 0
1222 1238 1254 1270 1478 1494 1510 1526 1734 1750 1766 1782 1990 2006 2022 2038 0
1223 1239 1255 1271 1479 1495 1511 1527 1735 1751 1767 1783 1991 2007 2023 2039 0
1224 1240 1256 1272 1480 1496 1512 1528 1736 1752 1768 1784 1992 2008 2024 2040 0
1225 1241 1257 1273 1481 1497 1513 1529 1737 1753 1769 1785 1993 2009 2025 2041 0
1226 1242 1258 1274 1482 1498 1514 1530 1738 1754 1770 1786 1994 2010 2026 2042 0
1227 1243 1259 1275 1483 1499 1515 1531 1739 1755 1771 1787 1995 2011 2027 2043 0
1228 1244 1260 1276 1484 1500 1516 1532 1740 1756 1772 1788 1996 2012 2028 2044 0
1229 1245 1261 1277 1485 1501 1517 1533 1741 1757 1773 1789 1997 2013 2029 2045 0
1230 1246 1262 1278 1486 1502 1518 1534 1742 1758 1774 1790 1998 2014 2030 2046 0
1231 1247 1263 1279 1487 1503 1519 1535 1743 1759 1775 1791 1999 2015 2031 2047 0
1232 1248 1264 1280 1488 1504 1520 1536 1744 1760 1776 1792 2000 2016 2032 2048 0
2049 2065 2081 2097 2305 2321 2337 2353 2561 2577 2593 2609 2817 2833 2849 2865 0
2050 2066 2082 2098 2306 2322 2338 2354 2562 2578 2594 2610 2818 2834 2850 2866 0
2051 2067 2083 2099 2307 2323 2339 2355 2563 2579 2595 2611 2819 2835 2851 2867 0
2052 2068 2084 2100 2308 2324 2340 2356 2564 2580 2596 2612 2820 2836 2852 2868 0
2053 2069 2085 2101 2309 2325 2341 2357 2565 2581 2597 2613 2821 2837 2853 2869 0
2054 2070 2086 2102 2310 2326 2342 2358 2566 2582 2598 2614 2822 2838 2854 2870 0
2055 2071 2087 2103 2311 2327 2343 2359 2567 2583 2599 2615 2823 2839 2855 2871 0
2056 2072 2088 2104 2312 2328 2344 2360 2568 2584 2600 2616 2824 2840 2856 2872 0
2057 2073 2089 2105 2313 2329 2345 2361 2569 2585 2601 2617 2825 2841 2857 2873 0
2058 2074 2090 2106 2314 2330 2346 2362 2570 2586 2602 2618 2826 2842 2858 2874 0
2059 2075 2091 2107 2315 2331 2347 2363 2571 2587 2603 2619 2827 2843 2859 2875 0
2060 2076 2092 2108 2316 2332 2348 2364 2572 2588 2604 2620 2828 2844 2860 2876 0
2061 2077 2093 2109 2317 2333 2349 2365 2573 2589 2605 2621 2829 2845 2861 2877 0
2062 2078 2094 2110 2318 2334 2350 2366 2574 2590 2606 2622 2830 2846 2862 2878 0
2063 2079 2095 2111 2319 2335 2351 2367 2575 2591 2607 2623 2831 2847 2863 2879 0
2064 2080 2096 2112 2320 2336 2352 2368 2576 2592 2608 2624 2832 2848 2864 2880 0
2113 2129 2145 2161 2369 2385 2401 2417 2625 2641 2657 2673 2881 2897 2913 2929 0
2114 2130 2146 2162 2370 2386 2402 2418 2626 2642 2658 2674 2882 2898 2914 2930 0
2115 2131 2147 2163 2371 2387 2403 2419 2627 2643 2659 2675 2883 2899 2915 2931 0
2116 2132 2148 2164 2372 2388 2404 2420 2628 2644 2660 2676 2884 2900 2916 2932 0
2117 2133 2149 2165 2373 2389 2405 2421 2629 2645 2661 2677 2885 2901 2917 2933 0
2118 2134 2150 2166 2374 2390 2406 2422 2630 2646 2662 2678 2886 2902 2918 2934 0
2119 2135 2151 2167 2375 2391 2407 2423 2631 2647 2663 2679 2887 2903 2919 2935 0
2120 2136 2152 2168 2376 2392 2408 2424 2632 2648 2664 2680 2888 2904 2920 2936 0
2121 2137 2153 2169 2377 2393 2409 2425 2633 2649 2665 2681 2889 2905 2921 2937 0
2122 2138 2154 2170 2378 2394 2410 2426 2634 2650 2666 2682 2890 2906 2922 2938 0
2123 2139 2155 2171 2379 2395 2411 2427 2635 2651 2667 2683 2891 2907 2923 2939 0
2124 2140 2156 2172 2380 2396 2412 2428 2636 2652 2668 2684 2892 2908 2924 2940 0
2125 2141 2157 2173 2381 2397 2413 2429 2637 2653 2669 2685 2893 2909 2925 2941 0
2126 2142 2158 2174 2382 2398 2414 2430 2638 2654 2670 2686 2894 2910 2926 2942 0
2127 2143 2159 2175 2383 2399 2415 2431 2639 2655 2671 2687 2895 2911 2927 2943 0
2128 2144 2160 2176 2384 2400 2416 2432 2640 2656 2672 2688 2896 2912 2928 2944 0
2177 2193 2209 2225 2433 2449 2465 2481 2689 2705 2721 2737 2945 2961 2977 2993 0
2178 2194 2210 2226 2434 2450 2466 2482 2690 2706 2722 2738 2946 2962 2978 2994 0
2179 2195 2211 2227 2435 2451 2467 2483 2691 2707 2723 2739 2947 2963 2979 2995 0
2180 2196 2212 2228 2436 2452 2468 2484 2692 2708 2724 2740 2948 2964 2980 2996 0
2181 2197 2213 2229 2437 2453 2469 2485 2693 2709 2725 2741 2949 2965 2981 2997 0
2182 2198 2214 2230 2438 2454 2470 2486 2694 2710 2726 2742 2950 2966 2982 2998 0
2183 2199 2215 2231 2439 2455 2471 2487 2695 2711 2727 2743 2951 2967 2983 2999 0
2184 2200 2216 2232 2440 2456 2472 2488 2696 2712 2728 2744 2952 2968 2984 3000 0
2185 2201 2217 2233 2441 2457 2473 2489 2697 2713 2729 2745 2953 2969 2985 3001 0
2186 2202 2218 2234 2442 2458 2474 2490 2698 2714 2730 2746 2954 2970 2986 3002 0
2187 2203 2219 2235 2443 2459 2475 2491 2699 2715 2731 2747 2955 2971 2987 3003 0
2188 2204 2220 2236 2444 2460 2476 2492 2700 2716 2732 2748 2956 2972 2988 3004 0
2189 2205 2221 2237 2445 2461 2477 2493 2701 2717 2733 2749 2957 2973 2989 3005 0
2190 2206 2222 2238 2446 2462 2478 2494 2702 2718 2734 2750 2958 2974 2990 3006 0
2191 2207 2223 2239 2447 2463 2479 2495 2703 2719 2735 2751 2959 2975 2991 3007 0
2192 2208 2224 2240 2448 2464 2480 2496 2704 2720 2736 2752 2960 2976 2992 3008 0
2241 2257 2273 2289 2497 2513 2529 2545 2753 2769 2785 2801 3009 3025 3041 3057 0
2242 2258 2274 2290 2498 2514 2530 2546 2754 2770 2786 2802 3010 3026 3042 3058 0
2243 2259 2275 2291 2499 2515 2531 2547 2755 2771 2787 2803 3011 3027 3043 3059 0
2244 2260 2276 2292 2500 2516 2532 2548 2756 2772 2788 2804 3012 3028 3044 3060 0
2245 2261 2277 2293 2501 2517 2533 2549 2757 2773 2789 2805 3013 3029 3045 3061 0
2246 2262 2278 2294 2502 2518 2534 2550 2758 2774 2790 2806 3014 3030 3046 3062 0
2247 2263 2279 2295 2503 2519 2535 2551 2759 2775 2791 2807 3015 3031 3047 3063 0
2248 2264 2280 2296 2504 2520 2536 2552 2760 2776 2792 2808 3016 3032 3048 3064 0
2249 2265 2281 2297 2505 2521 2537 2553 2761 2777 2793 2809 3017 3033 3049 3065 0
2250 2266 2282 2298 2506 2522 2538 2554 2762 2778 2794 2810 3018 3034 3050 3066 0
2251 2267 2283 2299 2507 2523 2539 2555 2763 2779 2795 2811 3019 3035 3051 3067 0
2252 2268 2284 2300 2508 2524 2540 2556 2764 2780 2796 2812 3020 3036 3052 3068 0
2253 2269 2285 2301 2509 2525 2541 2557 2765 2781 2797 2813 3021 3037 3053 3069 0
2254 2270 2286 2302 2510 2526 2542 2558 2766 2782 2798 2814 3022 3038 3054 3070 0
2255 2271 2287 2303 2511 2527 2543 2559 2767 2783 2799 2815 3023 3039 3055 3071 0
2256 2272 2288 2304 2512 2528 2544 2560 2768 2784 2800 2816 3024 3040 3056 3072 0
3073 3089 3105 3121 3329 3345 3361 3377 3585 3601 3617 3633 3841 3857 3873 3889 0
3074 3090 3106 3122 3330 3346 3362 3378 3586 3602 3618 3634 3842 3858 3874 3890 0
3075 3091 3107 3123 3331 3347 3363 3379 3587 3603 3619 3635 3843 3859 3875 3891 0
3076 3092 3108 3124 3332 3348 3364 3380 3588 3604 3620 3636 3844 3860 3876 3892 0
3077 3093 3109 3125 3333 3349 3365 3381 3589 3605 3621 3637 3845 3861 3877 3893 0
3078 3094 3110 3126 3334 3350 3366 3382 3590 3606 3622 3638 3846 3862 3878 3894 0
3079 3095 3111 3127 3335 3351 3367 3383 3591 3607 3623 3639 3847 3863 3879 3895 0
3080 3096 3112 3128 3336 3352 3368 3384 3592 3608 3624 3640 3848 3864 3880 3896 0
3081 3097 3113 3129 3337 3353 3369 3385 3593 3609 3625 3641 3849 3865 3881 3897 0
3082 3098 3114 3130 3338 3354 3370 3386 3594 3610 3626 3642 3850 3866 3882 3898 0
3083 3099 3115 3131 3339 3355 3371 3387 3595 3611 3627 3643 3851 3867 3883 3899 0
3084 3100 3116 3132 3340 3356 3372 3388 3596 3612 3628 3644 3852 3868 3884 3900 0
3085 3101 3117 3133 3341 3357 3373 3389 3597 3613 3629 3645 3853 3869 3885 3901 0
3086 3102 3118 3134 3342 3358 3374 3390 3598 3614 3630 3646 3854 3870 3886 3902 0
3087 3103 3119 3135 3343 3359 3375 3391 3599 3615 3631 3647 3855 3871 3887 3903 0
3088 3104 3120 3136 3344 3360 3376 3392 3600 3616 3632 3648 3856 3872 3888 3904 0
3137 3153 3169 3185 3393 3409 3425 3441 3649 3665 3681 3697 3905 3921 3937 3953 0
3138 3154 3170 3186 3394 3410 3426 3442 3650 3666 3682 3698 3906 3922 3938 3954 0
3139 3155 3171 3187 3395 3411 3427 3443 3651 3667 3683 3699 3907 3923 3939 3955 0
3140 3156 3172 3188 3396 3412 3428 3444 3652 3668 3684 3700 3908 3924 3940 3956 0
3141 3157 3173 3189 3397 3413 3429 3445 3653 3669 3685 3701 3909 3925 3941 3957 0
3142 3158 3174 3190 3398 3414 3430 3446 3654 3670 3686 3702 3910 3926 3942 3958 0
3143 3159 3175 3191 3399 3415 3431 3447 3655 3671 3687 3703 3911 3927 3943 3959 0
3144 3160 3176 3192 3400 3416 3432 3448 3656 3672 3688 3704 3912 3928 3944 3960 0
3145 3161 3177 3193 3401 3417 3433 3449 3657 3673 3689 3705 3913 3929 3945 3961 0
3146 3162 3178 3194 3402 3418 3434 3450 3658 3674 3690 3706 3914 3930 3946 3962 0
3147 3163 3179 3195 3403 3419 3435 3451 3659 3675 3691 3707 3915 3931 3947 3963 0
3148 3164 3180 3196 3404 3420 3436 3452 3660 3676 3692 3708 3916 3932 3948 3964 0
3149 3165 3181 3197 3405 3421 3437 3453 3661 3677 3693 3709 3917 3933 3949 3965 0
3150 3166 3182 3198 3406 3422 3438 3454 3662 3678 3694 3710 3918 3934 3950 3966 0
3151 3167 3183 3199 3407 3423 3439 3455 3663 3679 3695 3711 3919 3935 3951 3967 0
3152 3168 3184 3200 3408 3424 3440 3456 3664 3680 3696 3712 3920 3936 3952 3968 0
3201 3217 3233 3249 3457 3473 3489 3505 3713 3729 3745 3761 3969 3985 4001 4017 0
3202 3218 3234 3250 3458 3474 3490 3506 3714 3730 3746 3762 3970 3986 4002 4018 0
3203 3219 3235 3251 3459 3475 3491 3507 3715 3731 3747 3763 3971 3987 4003 4019 0
3204 3220 3236 3252 3460 3476 3492 3508 3716 3732 3748 3764 3972 3988 4004 4020 0
3205 3221 3237 3253 3461 3477 3493 3509 3717 3733 3749 3765 3973 3989 4005 4021 0
3206 3222 3238 3254 3462 3478 3494 3510 3718 3734 3750 3766 3974 3990 4006 4022 0
3207 3223 3239 3255 3463 3479 3495 3511 3719 3735 3751 3767 3975 3991 4007 4023 0
3208 3224 3240 3256 3464 3480 3496 3512 3720 3736 3752 3768 3976 3992 4008 4024 0
3209 3225 3241 3257 3465 3481 3497 3513 3721 3737 3753 3769 3977 3993 4009 4025 0
3210 3226 3242 3258 3466 3482 3498 3514 3722 3738 3754 3770 3978 3994 4010 4026 0
3211 3227 3243 3259 3467 3483 3499 3515 3723 3739 3755 3771 3979 3995 4011 4027 0
3212 3228 3244 3260 3468 3484 3500 3516 3724 3740 3756 3772 3980 3996 4012 4028 0
3213 3229 3245 3261 3469 3485 3501 3517 3725 3741 3757 3773 3981 3997 4013 4029 0
3214 3230 3246 3262 3470 3486 3502 3518 3726 3742 3758 3774 3982 3998 4014 4030 0
3215 3231 3247 3263 3471 3487 3503 3519 3727 3743 3759 3775 3983 3999 4015 4031 0
3216 3232 3248 3264 3472 3488 3504 3520 3728 3744 3760 3776 3984 4000 4016 4032 0
3265 3281 3297 3313 3521 3537 3553 3569 3777 3793 3809 3825 4033 4049 4065 4081 0
3266 3282 3298 3314 3522 3538 3554 3570 3778 3794 3810 3826 4034 4050 4066 4082 0
3267 3283 3299 3315 3523 3539 3555 3571 3779 3795 3811 3827 4035 4051 4067 4083 0
3268 3284 3300 3316 3524 3540 3556 3572 3780 3796 3812 3828 4036 4052 4068 4084 0
3269 3285 3301 3317 3525 3541 3557 3573 3781 3797 3813 3829 4037 4053 4069 4085 0
3270 3286 3302 3318 3526 3542 3558 3574 3782 3798 3814 3830 4038 4054 4070 4086 0
3271 3287 3303 3319 3527 3543 3559 3575 3783 3799 3815 3831 4039 4055 4071 4087 0
3272 3288 3304 3320 3528 3544 3560 3576 3784 3800 3816 3832 4040 4056 4072 4088 0
3273 3289 3305 3321 3529 3545 3561 3577 3785 3801 3817 3833 4041 4057 4073 4089 0
3274 3290 3306 3322 3530 3546 3562 3578 3786 3802 3818 3834 4042 4058 4074 4090 0
3275 3291 3307 3323 3531 3547 3563 3579 3787 3803 3819 3835 4043 4059 4075 4091 0
3276 3292 3308 3324 3532 3548 3564 3580 3788 3804 3820 3836 4044 4060 4076 4092 0
3277 3293 3309 3325 3533 3549 3565 3581 3789 3805 3821 3837 4045 4061 4077 4093 0
3278 3294 3310 3326 3534 3550 3566 3582 3790 3806 3822 3838 4046 4062 4078 4094 0
3279 3295 3311 3327 3535 3551 3567 3583 3791 3807 3823 3839 4047 4063 4079 4095 0
3280 3296 3312 3328 3536 3552 3568 3584 3792 3808 3824 3840 4048 4064 4080 4096 0
5 0
54 0
87 0
106 0
147 0
194 0
282 0
306 0
334 0
344 0
368 0
379 0
396 0
409 0
431 0
454 0
485 0
523 0
688 0
714 0
743 0
781 0
785 0
812 0
847 0
886 0
1003 0
1028 0
1073 0
1114 0
1181 0
1232 0
1296 0
1338 0
1374 0
1388 0
1419 0
1448 0
1477 0
1524 0
1548 0
1606 0
1629 0
1643 0
1664 0
1671 0
1710 0
1752 0
1785 0
1935 0
1962 0
2112 0
2157 0
2170 0
2198 0
2229 0
2281 0
2322 0
2341 0
2367 0
2448 0
2509 0
2542 0
2569 0
2616 0
2652 0
2670 0
2675 0
2701 0
2719 0
2731 0
2790 0
2936 0
2958 0
2988 0
3002 0
3040 0
3108 0
3125 0
3177 0
3230 0
3245 0
3254 0
3322 0
3363 0
3403 0
3488 0
3534 0
3581 0
3630 0
3680 0
3721 0
3740 0
3787 0
3796 0
3823 0
3829 0
3873 0
3901 0
3951 0
4050 0
