c Exemple de coloration de graphe simple
p cnf 30 85
1 2 3  0
4 5 6  0
7 8 9  0
10 11 12  0
13 14 15  0
16 17 18  0
19 20 21  0
22 23 24  0
25 26 27  0
28 29 30  0
-1 -2  0
-1 -3  0
-2 -3  0
-4 -5  0
-4 -6  0
-5 -6  0
-7 -8  0
-7 -9  0
-8 -9  0
-10 -11  0
-10 -12  0
-11 -12  0
-13 -14  0
-13 -15  0
-14 -15  0
-16 -17  0
-16 -18  0
-17 -18  0
-19 -20  0
-19 -21  0
-20 -21  0
-22 -23  0
-22 -24  0
-23 -24  0
-25 -26  0
-25 -27  0
-26 -27  0
-28 -29  0
-28 -30  0
-29 -30  0
-1 -4  0
-2 -5  0
-3 -6  0
-1 -7  0
-2 -8  0
-3 -9  0
-1 -16  0
-2 -17  0
-3 -18  0
-4 -10  0
-5 -11  0
-6 -12  0
-4 -19  0
-5 -20  0
-6 -21  0
-10 -13  0
-11 -14  0
-12 -15  0
-10 -25  0
-11 -26  0
-12 -27  0
-13 -7  0
-14 -8  0
-15 -9  0
-13 -28  0
-14 -29  0
-15 -30  0
-7 -22  0
-8 -23  0
-9 -24  0
-16 -25  0
-17 -26  0
-18 -27  0
-25 -22  0
-26 -23  0
-27 -24  0
-19 -22  0
-20 -23  0
-21 -24  0
-19 -28  0
-20 -29  0
-21 -30  0
-16 -28  0
-17 -29  0
-18 -30  0
